%BLOCK LATTICE_CART
ang    # angstrom units
  7.075000000000     0.000000000000     0.000000000000   
  0.000000000000     7.075000000000     0.000000000000   
  0.000000000000     0.000000000000     9.023000000000   
%ENDBLOCK LATTICE_CART

%BLOCK POSITIONS_FRAC
O      0.171425000000     0.078575000000     0.083333333333   
O      0.181450000000     0.125000000000     0.000000000000   
O      0.000000000000     0.125000000000     0.065866666667   
Si     0.193725000000     0.125000000000     0.058000000000   
O      0.171425000000     0.171425000000     0.250000000000   
O      0.125000000000     0.181450000000     0.166666666667   
O      0.125000000000     0.000000000000     0.232533333333   
Si     0.125000000000     0.193725000000     0.224666666667   
O      0.078575000000     0.171425000000     0.083333333333   
O      0.068550000000     0.125000000000     0.000000000000   
Si     0.056275000000     0.125000000000     0.058000000000   
O      0.078575000000     0.078575000000     0.250000000000   
O      0.125000000000     0.068550000000     0.166666666667   
Si     0.125000000000     0.056275000000     0.224666666667   
O      0.000000000000     0.125000000000     0.267466666667   
Si     0.193725000000     0.125000000000     0.275333333333   
O      0.125000000000     0.000000000000     0.100800000000   
Si     0.125000000000     0.193725000000     0.108666666667   
Si     0.056275000000     0.125000000000     0.275333333333   
Si     0.125000000000     0.056275000000     0.108666666667   
O      0.078575000000     0.171425000000     0.250000000000   
O      0.078575000000     0.078575000000     0.083333333333   
O      0.171425000000     0.078575000000     0.250000000000   
O      0.171425000000     0.171425000000     0.083333333333   
O      0.171425000000     0.078575000000     0.416666666667   
O      0.181450000000     0.125000000000     0.333333333333   
O      0.000000000000     0.125000000000     0.399200000000   
Si     0.193725000000     0.125000000000     0.391333333333   
O      0.171425000000     0.171425000000     0.583333333333   
O      0.125000000000     0.181450000000     0.500000000000   
O      0.125000000000     0.000000000000     0.565866666667   
Si     0.125000000000     0.193725000000     0.558000000000   
O      0.078575000000     0.171425000000     0.416666666667   
O      0.068550000000     0.125000000000     0.333333333333   
Si     0.056275000000     0.125000000000     0.391333333333   
O      0.078575000000     0.078575000000     0.583333333333   
O      0.125000000000     0.068550000000     0.500000000000   
Si     0.125000000000     0.056275000000     0.558000000000   
O      0.000000000000     0.125000000000     0.600800000000   
Si     0.193725000000     0.125000000000     0.608666666667   
O      0.125000000000     0.000000000000     0.434133333333   
Si     0.125000000000     0.193725000000     0.442000000000   
Si     0.056275000000     0.125000000000     0.608666666667   
Si     0.125000000000     0.056275000000     0.442000000000   
O      0.078575000000     0.171425000000     0.583333333333   
O      0.078575000000     0.078575000000     0.416666666667   
O      0.171425000000     0.078575000000     0.583333333333   
O      0.171425000000     0.171425000000     0.416666666667   
O      0.171425000000     0.078575000000     0.750000000000   
O      0.181450000000     0.125000000000     0.666666666667   
O      0.000000000000     0.125000000000     0.732533333333   
Si     0.193725000000     0.125000000000     0.724666666667   
O      0.171425000000     0.171425000000     0.916666666667   
O      0.125000000000     0.181450000000     0.833333333333   
O      0.125000000000     0.000000000000     0.899200000000   
Si     0.125000000000     0.193725000000     0.891333333333   
O      0.078575000000     0.171425000000     0.750000000000   
O      0.068550000000     0.125000000000     0.666666666667   
Si     0.056275000000     0.125000000000     0.724666666667   
O      0.078575000000     0.078575000000     0.916666666667   
O      0.125000000000     0.068550000000     0.833333333333   
Si     0.125000000000     0.056275000000     0.891333333333   
O      0.000000000000     0.125000000000     0.934133333333   
Si     0.193725000000     0.125000000000     0.942000000000   
O      0.125000000000     0.000000000000     0.767466666667   
Si     0.125000000000     0.193725000000     0.775333333333   
Si     0.056275000000     0.125000000000     0.942000000000   
Si     0.125000000000     0.056275000000     0.775333333333   
O      0.078575000000     0.171425000000     0.916666666667   
O      0.078575000000     0.078575000000     0.750000000000   
O      0.171425000000     0.078575000000     0.916666666667   
O      0.171425000000     0.171425000000     0.750000000000   
O      0.171425000000     0.328575000000     0.083333333333   
O      0.181450000000     0.375000000000     0.000000000000   
O      0.000000000000     0.375000000000     0.065866666667   
Si     0.193725000000     0.375000000000     0.058000000000   
O      0.171425000000     0.421425000000     0.250000000000   
O      0.125000000000     0.431450000000     0.166666666667   
O      0.125000000000     0.250000000000     0.232533333333   
Si     0.125000000000     0.443725000000     0.224666666667   
O      0.078575000000     0.421425000000     0.083333333333   
O      0.068550000000     0.375000000000     0.000000000000   
Si     0.056275000000     0.375000000000     0.058000000000   
O      0.078575000000     0.328575000000     0.250000000000   
O      0.125000000000     0.318550000000     0.166666666667   
Si     0.125000000000     0.306275000000     0.224666666667   
O      0.000000000000     0.375000000000     0.267466666667   
Si     0.193725000000     0.375000000000     0.275333333333   
O      0.125000000000     0.250000000000     0.100800000000   
Si     0.125000000000     0.443725000000     0.108666666667   
Si     0.056275000000     0.375000000000     0.275333333333   
Si     0.125000000000     0.306275000000     0.108666666667   
O      0.078575000000     0.421425000000     0.250000000000   
O      0.078575000000     0.328575000000     0.083333333333   
O      0.171425000000     0.328575000000     0.250000000000   
O      0.171425000000     0.421425000000     0.083333333333   
O      0.171425000000     0.328575000000     0.416666666667   
O      0.181450000000     0.375000000000     0.333333333333   
O      0.000000000000     0.375000000000     0.399200000000   
Si     0.193725000000     0.375000000000     0.391333333333   
O      0.171425000000     0.421425000000     0.583333333333   
O      0.125000000000     0.431450000000     0.500000000000   
O      0.125000000000     0.250000000000     0.565866666667   
Si     0.125000000000     0.443725000000     0.558000000000   
O      0.078575000000     0.421425000000     0.416666666667   
O      0.068550000000     0.375000000000     0.333333333333   
Si     0.056275000000     0.375000000000     0.391333333333   
O      0.078575000000     0.328575000000     0.583333333333   
O      0.125000000000     0.318550000000     0.500000000000   
Si     0.125000000000     0.306275000000     0.558000000000   
O      0.000000000000     0.375000000000     0.600800000000   
Si     0.193725000000     0.375000000000     0.608666666667   
O      0.125000000000     0.250000000000     0.434133333333   
Si     0.125000000000     0.443725000000     0.442000000000   
Si     0.056275000000     0.375000000000     0.608666666667   
Si     0.125000000000     0.306275000000     0.442000000000   
O      0.078575000000     0.421425000000     0.583333333333   
O      0.078575000000     0.328575000000     0.416666666667   
O      0.171425000000     0.328575000000     0.583333333333   
O      0.171425000000     0.421425000000     0.416666666667   
O      0.171425000000     0.328575000000     0.750000000000   
O      0.181450000000     0.375000000000     0.666666666667   
O      0.000000000000     0.375000000000     0.732533333333   
Si     0.193725000000     0.375000000000     0.724666666667   
O      0.171425000000     0.421425000000     0.916666666667   
O      0.125000000000     0.431450000000     0.833333333333   
O      0.125000000000     0.250000000000     0.899200000000   
Si     0.125000000000     0.443725000000     0.891333333333   
O      0.078575000000     0.421425000000     0.750000000000   
O      0.068550000000     0.375000000000     0.666666666667   
Si     0.056275000000     0.375000000000     0.724666666667   
O      0.078575000000     0.328575000000     0.916666666667   
O      0.125000000000     0.318550000000     0.833333333333   
Si     0.125000000000     0.306275000000     0.891333333333   
O      0.000000000000     0.375000000000     0.934133333333   
Si     0.193725000000     0.375000000000     0.942000000000   
O      0.125000000000     0.250000000000     0.767466666667   
Si     0.125000000000     0.443725000000     0.775333333333   
Si     0.056275000000     0.375000000000     0.942000000000   
Si     0.125000000000     0.306275000000     0.775333333333   
O      0.078575000000     0.421425000000     0.916666666667   
O      0.078575000000     0.328575000000     0.750000000000   
O      0.171425000000     0.328575000000     0.916666666667   
O      0.171425000000     0.421425000000     0.750000000000   
O      0.171425000000     0.578575000000     0.083333333333   
O      0.181450000000     0.625000000000     0.000000000000   
O      0.000000000000     0.625000000000     0.065866666667   
Si     0.193725000000     0.625000000000     0.058000000000   
O      0.171425000000     0.671425000000     0.250000000000   
O      0.125000000000     0.681450000000     0.166666666667   
O      0.125000000000     0.500000000000     0.232533333333   
Si     0.125000000000     0.693725000000     0.224666666667   
O      0.078575000000     0.671425000000     0.083333333333   
O      0.068550000000     0.625000000000     0.000000000000   
Si     0.056275000000     0.625000000000     0.058000000000   
O      0.078575000000     0.578575000000     0.250000000000   
O      0.125000000000     0.568550000000     0.166666666667   
Si     0.125000000000     0.556275000000     0.224666666667   
O      0.000000000000     0.625000000000     0.267466666667   
Si     0.193725000000     0.625000000000     0.275333333333   
O      0.125000000000     0.500000000000     0.100800000000   
Si     0.125000000000     0.693725000000     0.108666666667   
Si     0.056275000000     0.625000000000     0.275333333333   
Si     0.125000000000     0.556275000000     0.108666666667   
O      0.078575000000     0.671425000000     0.250000000000   
O      0.078575000000     0.578575000000     0.083333333333   
O      0.171425000000     0.578575000000     0.250000000000   
O      0.171425000000     0.671425000000     0.083333333333   
O      0.171425000000     0.578575000000     0.416666666667   
O      0.181450000000     0.625000000000     0.333333333333   
O      0.000000000000     0.625000000000     0.399200000000   
Si     0.193725000000     0.625000000000     0.391333333333   
O      0.171425000000     0.671425000000     0.583333333333   
O      0.125000000000     0.681450000000     0.500000000000   
O      0.125000000000     0.500000000000     0.565866666667   
Si     0.125000000000     0.693725000000     0.558000000000   
O      0.078575000000     0.671425000000     0.416666666667   
O      0.068550000000     0.625000000000     0.333333333333   
Si     0.056275000000     0.625000000000     0.391333333333   
O      0.078575000000     0.578575000000     0.583333333333   
O      0.125000000000     0.568550000000     0.500000000000   
Si     0.125000000000     0.556275000000     0.558000000000   
O      0.000000000000     0.625000000000     0.600800000000   
Si     0.193725000000     0.625000000000     0.608666666667   
O      0.125000000000     0.500000000000     0.434133333333   
Si     0.125000000000     0.693725000000     0.442000000000   
Si     0.056275000000     0.625000000000     0.608666666667   
Si     0.125000000000     0.556275000000     0.442000000000   
O      0.078575000000     0.671425000000     0.583333333333   
O      0.078575000000     0.578575000000     0.416666666667   
O      0.171425000000     0.578575000000     0.583333333333   
O      0.171425000000     0.671425000000     0.416666666667   
O      0.171425000000     0.578575000000     0.750000000000   
O      0.181450000000     0.625000000000     0.666666666667   
O      0.000000000000     0.625000000000     0.732533333333   
Si     0.193725000000     0.625000000000     0.724666666667   
O      0.171425000000     0.671425000000     0.916666666667   
O      0.125000000000     0.681450000000     0.833333333333   
O      0.125000000000     0.500000000000     0.899200000000   
Si     0.125000000000     0.693725000000     0.891333333333   
O      0.078575000000     0.671425000000     0.750000000000   
O      0.068550000000     0.625000000000     0.666666666667   
Si     0.056275000000     0.625000000000     0.724666666667   
O      0.078575000000     0.578575000000     0.916666666667   
O      0.125000000000     0.568550000000     0.833333333333   
Si     0.125000000000     0.556275000000     0.891333333333   
O      0.000000000000     0.625000000000     0.934133333333   
Si     0.193725000000     0.625000000000     0.942000000000   
O      0.125000000000     0.500000000000     0.767466666667   
Si     0.125000000000     0.693725000000     0.775333333333   
Si     0.056275000000     0.625000000000     0.942000000000   
Si     0.125000000000     0.556275000000     0.775333333333   
O      0.078575000000     0.671425000000     0.916666666667   
O      0.078575000000     0.578575000000     0.750000000000   
O      0.171425000000     0.578575000000     0.916666666667   
O      0.171425000000     0.671425000000     0.750000000000   
O      0.171425000000     0.828575000000     0.083333333333   
O      0.181450000000     0.875000000000     0.000000000000   
O      0.000000000000     0.875000000000     0.065866666667   
Si     0.193725000000     0.875000000000     0.058000000000   
O      0.171425000000     0.921425000000     0.250000000000   
O      0.125000000000     0.931450000000     0.166666666667   
O      0.125000000000     0.750000000000     0.232533333333   
Si     0.125000000000     0.943725000000     0.224666666667   
O      0.078575000000     0.921425000000     0.083333333333   
O      0.068550000000     0.875000000000     0.000000000000   
Si     0.056275000000     0.875000000000     0.058000000000   
O      0.078575000000     0.828575000000     0.250000000000   
O      0.125000000000     0.818550000000     0.166666666667   
Si     0.125000000000     0.806275000000     0.224666666667   
O      0.000000000000     0.875000000000     0.267466666667   
Si     0.193725000000     0.875000000000     0.275333333333   
O      0.125000000000     0.750000000000     0.100800000000   
Si     0.125000000000     0.943725000000     0.108666666667   
Si     0.056275000000     0.875000000000     0.275333333333   
Si     0.125000000000     0.806275000000     0.108666666667   
O      0.078575000000     0.921425000000     0.250000000000   
O      0.078575000000     0.828575000000     0.083333333333   
O      0.171425000000     0.828575000000     0.250000000000   
O      0.171425000000     0.921425000000     0.083333333333   
O      0.171425000000     0.828575000000     0.416666666667   
O      0.181450000000     0.875000000000     0.333333333333   
O      0.000000000000     0.875000000000     0.399200000000   
Si     0.193725000000     0.875000000000     0.391333333333   
O      0.171425000000     0.921425000000     0.583333333333   
O      0.125000000000     0.931450000000     0.500000000000   
O      0.125000000000     0.750000000000     0.565866666667   
Si     0.125000000000     0.943725000000     0.558000000000   
O      0.078575000000     0.921425000000     0.416666666667   
O      0.068550000000     0.875000000000     0.333333333333   
Si     0.056275000000     0.875000000000     0.391333333333   
O      0.078575000000     0.828575000000     0.583333333333   
O      0.125000000000     0.818550000000     0.500000000000   
Si     0.125000000000     0.806275000000     0.558000000000   
O      0.000000000000     0.875000000000     0.600800000000   
Si     0.193725000000     0.875000000000     0.608666666667   
O      0.125000000000     0.750000000000     0.434133333333   
Si     0.125000000000     0.943725000000     0.442000000000   
Si     0.056275000000     0.875000000000     0.608666666667   
Si     0.125000000000     0.806275000000     0.442000000000   
O      0.078575000000     0.921425000000     0.583333333333   
O      0.078575000000     0.828575000000     0.416666666667   
O      0.171425000000     0.828575000000     0.583333333333   
O      0.171425000000     0.921425000000     0.416666666667   
O      0.171425000000     0.828575000000     0.750000000000   
O      0.181450000000     0.875000000000     0.666666666667   
O      0.000000000000     0.875000000000     0.732533333333   
Si     0.193725000000     0.875000000000     0.724666666667   
O      0.171425000000     0.921425000000     0.916666666667   
O      0.125000000000     0.931450000000     0.833333333333   
O      0.125000000000     0.750000000000     0.899200000000   
Si     0.125000000000     0.943725000000     0.891333333333   
O      0.078575000000     0.921425000000     0.750000000000   
O      0.068550000000     0.875000000000     0.666666666667   
Si     0.056275000000     0.875000000000     0.724666666667   
O      0.078575000000     0.828575000000     0.916666666667   
O      0.125000000000     0.818550000000     0.833333333333   
Si     0.125000000000     0.806275000000     0.891333333333   
O      0.000000000000     0.875000000000     0.934133333333   
Si     0.193725000000     0.875000000000     0.942000000000   
O      0.125000000000     0.750000000000     0.767466666667   
Si     0.125000000000     0.943725000000     0.775333333333   
Si     0.056275000000     0.875000000000     0.942000000000   
Si     0.125000000000     0.806275000000     0.775333333333   
O      0.078575000000     0.921425000000     0.916666666667   
O      0.078575000000     0.828575000000     0.750000000000   
O      0.171425000000     0.828575000000     0.916666666667   
O      0.171425000000     0.921425000000     0.750000000000   
O      0.421425000000     0.078575000000     0.083333333333   
O      0.431450000000     0.125000000000     0.000000000000   
O      0.250000000000     0.125000000000     0.065866666667   
Si     0.443725000000     0.125000000000     0.058000000000   
O      0.421425000000     0.171425000000     0.250000000000   
O      0.375000000000     0.181450000000     0.166666666667   
O      0.375000000000     0.000000000000     0.232533333333   
Si     0.375000000000     0.193725000000     0.224666666667   
O      0.328575000000     0.171425000000     0.083333333333   
O      0.318550000000     0.125000000000     0.000000000000   
Si     0.306275000000     0.125000000000     0.058000000000   
O      0.328575000000     0.078575000000     0.250000000000   
O      0.375000000000     0.068550000000     0.166666666667   
Si     0.375000000000     0.056275000000     0.224666666667   
O      0.250000000000     0.125000000000     0.267466666667   
Si     0.443725000000     0.125000000000     0.275333333333   
O      0.375000000000     0.000000000000     0.100800000000   
Si     0.375000000000     0.193725000000     0.108666666667   
Si     0.306275000000     0.125000000000     0.275333333333   
Si     0.375000000000     0.056275000000     0.108666666667   
O      0.328575000000     0.171425000000     0.250000000000   
O      0.328575000000     0.078575000000     0.083333333333   
O      0.421425000000     0.078575000000     0.250000000000   
O      0.421425000000     0.171425000000     0.083333333333   
O      0.421425000000     0.078575000000     0.416666666667   
O      0.431450000000     0.125000000000     0.333333333333   
O      0.250000000000     0.125000000000     0.399200000000   
Si     0.443725000000     0.125000000000     0.391333333333   
O      0.421425000000     0.171425000000     0.583333333333   
O      0.375000000000     0.181450000000     0.500000000000   
O      0.375000000000     0.000000000000     0.565866666667   
Si     0.375000000000     0.193725000000     0.558000000000   
O      0.328575000000     0.171425000000     0.416666666667   
O      0.318550000000     0.125000000000     0.333333333333   
Si     0.306275000000     0.125000000000     0.391333333333   
O      0.328575000000     0.078575000000     0.583333333333   
O      0.375000000000     0.068550000000     0.500000000000   
Si     0.375000000000     0.056275000000     0.558000000000   
O      0.250000000000     0.125000000000     0.600800000000   
Si     0.443725000000     0.125000000000     0.608666666667   
O      0.375000000000     0.000000000000     0.434133333333   
Si     0.375000000000     0.193725000000     0.442000000000   
Si     0.306275000000     0.125000000000     0.608666666667   
Si     0.375000000000     0.056275000000     0.442000000000   
O      0.328575000000     0.171425000000     0.583333333333   
O      0.328575000000     0.078575000000     0.416666666667   
O      0.421425000000     0.078575000000     0.583333333333   
O      0.421425000000     0.171425000000     0.416666666667   
O      0.421425000000     0.078575000000     0.750000000000   
O      0.431450000000     0.125000000000     0.666666666667   
O      0.250000000000     0.125000000000     0.732533333333   
Si     0.443725000000     0.125000000000     0.724666666667   
O      0.421425000000     0.171425000000     0.916666666667   
O      0.375000000000     0.181450000000     0.833333333333   
O      0.375000000000     0.000000000000     0.899200000000   
Si     0.375000000000     0.193725000000     0.891333333333   
O      0.328575000000     0.171425000000     0.750000000000   
O      0.318550000000     0.125000000000     0.666666666667   
Si     0.306275000000     0.125000000000     0.724666666667   
O      0.328575000000     0.078575000000     0.916666666667   
O      0.375000000000     0.068550000000     0.833333333333   
Si     0.375000000000     0.056275000000     0.891333333333   
O      0.250000000000     0.125000000000     0.934133333333   
Si     0.443725000000     0.125000000000     0.942000000000   
O      0.375000000000     0.000000000000     0.767466666667   
Si     0.375000000000     0.193725000000     0.775333333333   
Si     0.306275000000     0.125000000000     0.942000000000   
Si     0.375000000000     0.056275000000     0.775333333333   
O      0.328575000000     0.171425000000     0.916666666667   
O      0.328575000000     0.078575000000     0.750000000000   
O      0.421425000000     0.078575000000     0.916666666667   
O      0.421425000000     0.171425000000     0.750000000000   
O      0.421425000000     0.328575000000     0.083333333333   
O      0.431450000000     0.375000000000     0.000000000000   
O      0.250000000000     0.375000000000     0.065866666667   
Si     0.443725000000     0.375000000000     0.058000000000   
O      0.421425000000     0.421425000000     0.250000000000   
O      0.375000000000     0.431450000000     0.166666666667   
O      0.375000000000     0.250000000000     0.232533333333   
Si     0.375000000000     0.443725000000     0.224666666667   
O      0.328575000000     0.421425000000     0.083333333333   
O      0.318550000000     0.375000000000     0.000000000000   
Si     0.306275000000     0.375000000000     0.058000000000   
O      0.328575000000     0.328575000000     0.250000000000   
O      0.375000000000     0.318550000000     0.166666666667   
Si     0.375000000000     0.306275000000     0.224666666667   
O      0.250000000000     0.375000000000     0.267466666667   
Si     0.443725000000     0.375000000000     0.275333333333   
O      0.375000000000     0.250000000000     0.100800000000   
Si     0.375000000000     0.443725000000     0.108666666667   
Si     0.306275000000     0.375000000000     0.275333333333   
Si     0.375000000000     0.306275000000     0.108666666667   
O      0.328575000000     0.421425000000     0.250000000000   
O      0.328575000000     0.328575000000     0.083333333333   
O      0.421425000000     0.328575000000     0.250000000000   
O      0.421425000000     0.421425000000     0.083333333333   
O      0.421425000000     0.328575000000     0.416666666667   
O      0.431450000000     0.375000000000     0.333333333333   
O      0.250000000000     0.375000000000     0.399200000000   
Si     0.443725000000     0.375000000000     0.391333333333   
O      0.421425000000     0.421425000000     0.583333333333   
O      0.375000000000     0.431450000000     0.500000000000   
O      0.375000000000     0.250000000000     0.565866666667   
Si     0.375000000000     0.443725000000     0.558000000000   
O      0.328575000000     0.421425000000     0.416666666667   
O      0.318550000000     0.375000000000     0.333333333333   
Si     0.306275000000     0.375000000000     0.391333333333   
O      0.328575000000     0.328575000000     0.583333333333   
O      0.375000000000     0.318550000000     0.500000000000   
Si     0.375000000000     0.306275000000     0.558000000000   
O      0.250000000000     0.375000000000     0.600800000000   
Si     0.443725000000     0.375000000000     0.608666666667   
O      0.375000000000     0.250000000000     0.434133333333   
Si     0.375000000000     0.443725000000     0.442000000000   
Si     0.306275000000     0.375000000000     0.608666666667   
Si     0.375000000000     0.306275000000     0.442000000000   
O      0.328575000000     0.421425000000     0.583333333333   
O      0.328575000000     0.328575000000     0.416666666667   
O      0.421425000000     0.328575000000     0.583333333333   
O      0.421425000000     0.421425000000     0.416666666667   
O      0.421425000000     0.328575000000     0.750000000000   
O      0.431450000000     0.375000000000     0.666666666667   
O      0.250000000000     0.375000000000     0.732533333333   
Si     0.443725000000     0.375000000000     0.724666666667   
O      0.421425000000     0.421425000000     0.916666666667   
O      0.375000000000     0.431450000000     0.833333333333   
O      0.375000000000     0.250000000000     0.899200000000   
Si     0.375000000000     0.443725000000     0.891333333333   
O      0.328575000000     0.421425000000     0.750000000000   
O      0.318550000000     0.375000000000     0.666666666667   
Si     0.306275000000     0.375000000000     0.724666666667   
O      0.328575000000     0.328575000000     0.916666666667   
O      0.375000000000     0.318550000000     0.833333333333   
Si     0.375000000000     0.306275000000     0.891333333333   
O      0.250000000000     0.375000000000     0.934133333333   
Si     0.443725000000     0.375000000000     0.942000000000   
O      0.375000000000     0.250000000000     0.767466666667   
Si     0.375000000000     0.443725000000     0.775333333333   
Si     0.306275000000     0.375000000000     0.942000000000   
Si     0.375000000000     0.306275000000     0.775333333333   
O      0.328575000000     0.421425000000     0.916666666667   
O      0.328575000000     0.328575000000     0.750000000000   
O      0.421425000000     0.328575000000     0.916666666667   
O      0.421425000000     0.421425000000     0.750000000000   
O      0.421425000000     0.578575000000     0.083333333333   
O      0.431450000000     0.625000000000     0.000000000000   
O      0.250000000000     0.625000000000     0.065866666667   
Si     0.443725000000     0.625000000000     0.058000000000   
O      0.421425000000     0.671425000000     0.250000000000   
O      0.375000000000     0.681450000000     0.166666666667   
O      0.375000000000     0.500000000000     0.232533333333   
Si     0.375000000000     0.693725000000     0.224666666667   
O      0.328575000000     0.671425000000     0.083333333333   
O      0.318550000000     0.625000000000     0.000000000000   
Si     0.306275000000     0.625000000000     0.058000000000   
O      0.328575000000     0.578575000000     0.250000000000   
O      0.375000000000     0.568550000000     0.166666666667   
Si     0.375000000000     0.556275000000     0.224666666667   
O      0.250000000000     0.625000000000     0.267466666667   
Si     0.443725000000     0.625000000000     0.275333333333   
O      0.375000000000     0.500000000000     0.100800000000   
Si     0.375000000000     0.693725000000     0.108666666667   
Si     0.306275000000     0.625000000000     0.275333333333   
Si     0.375000000000     0.556275000000     0.108666666667   
O      0.328575000000     0.671425000000     0.250000000000   
O      0.328575000000     0.578575000000     0.083333333333   
O      0.421425000000     0.578575000000     0.250000000000   
O      0.421425000000     0.671425000000     0.083333333333   
O      0.421425000000     0.578575000000     0.416666666667   
O      0.431450000000     0.625000000000     0.333333333333   
O      0.250000000000     0.625000000000     0.399200000000   
Si     0.443725000000     0.625000000000     0.391333333333   
O      0.421425000000     0.671425000000     0.583333333333   
O      0.375000000000     0.681450000000     0.500000000000   
O      0.375000000000     0.500000000000     0.565866666667   
Si     0.375000000000     0.693725000000     0.558000000000   
O      0.328575000000     0.671425000000     0.416666666667   
O      0.318550000000     0.625000000000     0.333333333333   
Si     0.306275000000     0.625000000000     0.391333333333   
O      0.328575000000     0.578575000000     0.583333333333   
O      0.375000000000     0.568550000000     0.500000000000   
Si     0.375000000000     0.556275000000     0.558000000000   
O      0.250000000000     0.625000000000     0.600800000000   
Si     0.443725000000     0.625000000000     0.608666666667   