%BLOCK LATTICE_CART
ang    # angstrom units
  20.914000000000    0.000000000000     0.000000000000   
 -10.457000000000    18.112055294748    0.000000000000   
  0.000000000000     0.000000000000     5.061000000000   
%ENDBLOCK LATTICE_CART

%BLOCK POSITIONS_FRAC
O      0.333350000000     0.067350000000     0.138883333333   
O      0.288000000000     0.000000000000     0.000000000000   
O      0.277200000000     0.054450000000     0.023033333333   
O      0.333350000000     0.050300000000     0.055550000000   
Si     0.308000000000     0.043050000000     0.012716666667   
O      0.432650000000     0.266000000000     0.138883333333   
O      0.000000000000     0.288000000000     0.000000000000   
O      0.445550000000     0.222750000000     0.023033333333   
O      0.449700000000     0.283050000000     0.055550000000   
Si     0.456950000000     0.264950000000     0.012716666667   
O      0.234000000000     0.166650000000     0.138883333333   
O      0.212000000000     0.212000000000     0.000000000000   
O      0.277250000000     0.222800000000     0.023033333333   
O      0.216950000000     0.166650000000     0.055550000000   
Si     0.235050000000     0.192000000000     0.012716666667   
O      0.067350000000     0.333350000000     0.027783333333   
O      0.054450000000     0.277200000000     0.143633333333   
O      0.050300000000     0.333350000000     0.111116666667   
Si     0.043050000000     0.308000000000     0.153950000000   
O      0.166650000000     0.234000000000     0.027783333333   
O      0.222800000000     0.277250000000     0.143633333333   
O      0.166650000000     0.216950000000     0.111116666667   
Si     0.192000000000     0.235050000000     0.153950000000   
O      0.266000000000     0.432650000000     0.027783333333   
O      0.222750000000     0.445550000000     0.143633333333   
O      0.283050000000     0.449700000000     0.111116666667   
Si     0.264950000000     0.456950000000     0.153950000000   
O      0.166650000000     0.432650000000     0.027783333333   
O      0.212000000000     0.000000000000     0.000000000000   
O      0.166650000000     0.449700000000     0.111116666667   
Si     0.192000000000     0.456950000000     0.153950000000   
O      0.067350000000     0.234000000000     0.027783333333   
O      0.000000000000     0.212000000000     0.000000000000   
O      0.050300000000     0.216950000000     0.111116666667   
Si     0.043050000000     0.235050000000     0.153950000000   
O      0.266000000000     0.333350000000     0.027783333333   
O      0.288000000000     0.288000000000     0.000000000000   
O      0.283050000000     0.333350000000     0.111116666667   
Si     0.264950000000     0.308000000000     0.153950000000   
O      0.432650000000     0.166650000000     0.138883333333   
O      0.449700000000     0.166650000000     0.055550000000   
Si     0.456950000000     0.192000000000     0.012716666667   
O      0.333350000000     0.266000000000     0.138883333333   
O      0.333350000000     0.283050000000     0.055550000000   
Si     0.308000000000     0.264950000000     0.012716666667   
O      0.234000000000     0.067350000000     0.138883333333   
O      0.216950000000     0.050300000000     0.055550000000   
Si     0.235050000000     0.043050000000     0.012716666667   
O      0.121333333333     0.166666666667     0.055555555556   
O      0.110533333333     0.221116666667     0.078588888889   
Si     0.141333333333     0.209716666667     0.068272222222   
O      0.333333333333     0.454666666667     0.055555555556   
O      0.278883333333     0.389416666667     0.078588888889   
Si     0.290283333333     0.431616666667     0.068272222222   
O      0.045333333333     0.378666666667     0.055555555556   
O      0.110583333333     0.389466666667     0.078588888889   
Si     0.068383333333     0.358666666667     0.068272222222   
O      0.400683333333     0.000016666667     0.083338888889   
O      0.387783333333     0.443866666667     0.032522222222   
O      0.383633333333     0.000016666667     0.000005555556   
Si     0.376383333333     0.474666666667     0.042838888889   
O      0.499983333333     0.400666666667     0.083338888889   
O      0.056133333333     0.443916666667     0.032522222222   
O      0.499983333333     0.383616666667     0.000005555556   
Si     0.025333333333     0.401716666667     0.042838888889   
O      0.099333333333     0.099316666667     0.083338888889   
O      0.056083333333     0.112216666667     0.032522222222   
O      0.116383333333     0.116366666667     0.000005555556   
Si     0.098283333333     0.123616666667     0.042838888889   
O      0.499983333333     0.099316666667     0.083338888889   
O      0.045333333333     0.166666666667     0.055555555556   
O      0.499983333333     0.116366666667     0.000005555556   
Si     0.025333333333     0.123616666667     0.042838888889   
O      0.400683333333     0.400666666667     0.083338888889   
O      0.333333333333     0.378666666667     0.055555555556   
O      0.383633333333     0.383616666667     0.000005555556   
Si     0.376383333333     0.401716666667     0.042838888889   
O      0.099333333333     0.000016666667     0.083338888889   
O      0.121333333333     0.454666666667     0.055555555556   
O      0.116383333333     0.000016666667     0.000005555556   
Si     0.098283333333     0.474666666667     0.042838888889   
Si     0.290283333333     0.358666666667     0.068272222222   
Si     0.141333333333     0.431616666667     0.068272222222   
Si     0.068383333333     0.209716666667     0.068272222222   
O      0.000016666667     0.400683333333     0.083327777778   
O      0.454666666667     0.333333333333     0.111111111111   
O      0.443866666667     0.387783333333     0.134144444444   
O      0.000016666667     0.383633333333     0.166661111111   
Si     0.474666666667     0.376383333333     0.123827777778   
O      0.166666666667     0.121333333333     0.111111111111   
O      0.112216666667     0.056083333333     0.134144444444   
O      0.116366666667     0.116383333333     0.166661111111   
Si     0.123616666667     0.098283333333     0.123827777778   
O      0.400666666667     0.499983333333     0.083327777778   
O      0.378666666667     0.045333333333     0.111111111111   
O      0.443916666667     0.056133333333     0.134144444444   
O      0.383616666667     0.499983333333     0.166661111111   
Si     0.401716666667     0.025333333333     0.123827777778   
O      0.221116666667     0.110533333333     0.088077777778   
Si     0.209716666667     0.141333333333     0.098394444444   
O      0.389466666667     0.110583333333     0.088077777778   
Si     0.358666666667     0.068383333333     0.098394444444   
O      0.389416666667     0.278883333333     0.088077777778   
Si     0.431616666667     0.290283333333     0.098394444444   
O      0.378666666667     0.333333333333     0.111111111111   
Si     0.358666666667     0.290283333333     0.098394444444   
O      0.166666666667     0.045333333333     0.111111111111   
Si     0.209716666667     0.068383333333     0.098394444444   
O      0.454666666667     0.121333333333     0.111111111111   
Si     0.431616666667     0.141333333333     0.098394444444   
O      0.099316666667     0.499983333333     0.083327777778   
O      0.116366666667     0.499983333333     0.166661111111   
Si     0.123616666667     0.025333333333     0.123827777778   
O      0.000016666667     0.099333333333     0.083327777778   
O      0.000016666667     0.116383333333     0.166661111111   
Si     0.474666666667     0.098283333333     0.123827777778   
O      0.383616666667     0.383633333333     0.166661111111   
Si     0.401716666667     0.376383333333     0.123827777778   
O      0.333350000000     0.067350000000     0.305550000000   
O      0.288000000000     0.000000000000     0.166666666667   
O      0.277200000000     0.054450000000     0.189700000000   
O      0.333350000000     0.050300000000     0.222216666667   
Si     0.308000000000     0.043050000000     0.179383333333   
O      0.432650000000     0.266000000000     0.305550000000   
O      0.000000000000     0.288000000000     0.166666666667   
O      0.445550000000     0.222750000000     0.189700000000   
O      0.449700000000     0.283050000000     0.222216666667   
Si     0.456950000000     0.264950000000     0.179383333333   
O      0.234000000000     0.166650000000     0.305550000000   
O      0.212000000000     0.212000000000     0.166666666667   
O      0.277250000000     0.222800000000     0.189700000000   
O      0.216950000000     0.166650000000     0.222216666667   
Si     0.235050000000     0.192000000000     0.179383333333   
O      0.067350000000     0.333350000000     0.194450000000   
O      0.054450000000     0.277200000000     0.310300000000   
O      0.050300000000     0.333350000000     0.277783333333   
Si     0.043050000000     0.308000000000     0.320616666667   
O      0.166650000000     0.234000000000     0.194450000000   
O      0.222800000000     0.277250000000     0.310300000000   
O      0.166650000000     0.216950000000     0.277783333333   
Si     0.192000000000     0.235050000000     0.320616666667   
O      0.266000000000     0.432650000000     0.194450000000   
O      0.222750000000     0.445550000000     0.310300000000   
O      0.283050000000     0.449700000000     0.277783333333   
Si     0.264950000000     0.456950000000     0.320616666667   
O      0.166650000000     0.432650000000     0.194450000000   
O      0.212000000000     0.000000000000     0.166666666667   
O      0.166650000000     0.449700000000     0.277783333333   
Si     0.192000000000     0.456950000000     0.320616666667   
O      0.067350000000     0.234000000000     0.194450000000   
O      0.000000000000     0.212000000000     0.166666666667   
O      0.050300000000     0.216950000000     0.277783333333   
Si     0.043050000000     0.235050000000     0.320616666667   
O      0.266000000000     0.333350000000     0.194450000000   
O      0.288000000000     0.288000000000     0.166666666667   
O      0.283050000000     0.333350000000     0.277783333333   
Si     0.264950000000     0.308000000000     0.320616666667   
O      0.432650000000     0.166650000000     0.305550000000   
O      0.449700000000     0.166650000000     0.222216666667   
Si     0.456950000000     0.192000000000     0.179383333333   
O      0.333350000000     0.266000000000     0.305550000000   
O      0.333350000000     0.283050000000     0.222216666667   
Si     0.308000000000     0.264950000000     0.179383333333   
O      0.234000000000     0.067350000000     0.305550000000   
O      0.216950000000     0.050300000000     0.222216666667   
Si     0.235050000000     0.043050000000     0.179383333333   
O      0.121333333333     0.166666666667     0.222222222222   
O      0.110533333333     0.221116666667     0.245255555556   
Si     0.141333333333     0.209716666667     0.234938888889   
O      0.333333333333     0.454666666667     0.222222222222   
O      0.278883333333     0.389416666667     0.245255555556   
Si     0.290283333333     0.431616666667     0.234938888889   
O      0.045333333333     0.378666666667     0.222222222222   
O      0.110583333333     0.389466666667     0.245255555556   
Si     0.068383333333     0.358666666667     0.234938888889   
O      0.400683333333     0.000016666667     0.250005555556   
O      0.387783333333     0.443866666667     0.199188888889   
O      0.383633333333     0.000016666667     0.166672222222   
Si     0.376383333333     0.474666666667     0.209505555556   
O      0.499983333333     0.400666666667     0.250005555556   
O      0.056133333333     0.443916666667     0.199188888889   
O      0.499983333333     0.383616666667     0.166672222222   
Si     0.025333333333     0.401716666667     0.209505555556   
O      0.099333333333     0.099316666667     0.250005555556   
O      0.056083333333     0.112216666667     0.199188888889   
Si     0.098283333333     0.123616666667     0.209505555556   
O      0.499983333333     0.099316666667     0.250005555556   
O      0.045333333333     0.166666666667     0.222222222222   
O      0.499983333333     0.116366666667     0.166672222222   
Si     0.025333333333     0.123616666667     0.209505555556   
O      0.400683333333     0.400666666667     0.250005555556   
O      0.333333333333     0.378666666667     0.222222222222   
Si     0.376383333333     0.401716666667     0.209505555556   
O      0.099333333333     0.000016666667     0.250005555556   
O      0.121333333333     0.454666666667     0.222222222222   
O      0.116383333333     0.000016666667     0.166672222222   
Si     0.098283333333     0.474666666667     0.209505555556   
Si     0.290283333333     0.358666666667     0.234938888889   
Si     0.141333333333     0.431616666667     0.234938888889   
Si     0.068383333333     0.209716666667     0.234938888889   
O      0.000016666667     0.400683333333     0.249994444444   
O      0.454666666667     0.333333333333     0.277777777778   
O      0.443866666667     0.387783333333     0.300811111111   
O      0.000016666667     0.383633333333     0.333327777778   
Si     0.474666666667     0.376383333333     0.290494444444   
O      0.166666666667     0.121333333333     0.277777777778   
O      0.112216666667     0.056083333333     0.300811111111   
O      0.116366666667     0.116383333333     0.333327777778   
Si     0.123616666667     0.098283333333     0.290494444444   
O      0.400666666667     0.499983333333     0.249994444444   
O      0.378666666667     0.045333333333     0.277777777778   
O      0.443916666667     0.056133333333     0.300811111111   
O      0.383616666667     0.499983333333     0.333327777778   
Si     0.401716666667     0.025333333333     0.290494444444   
O      0.221116666667     0.110533333333     0.254744444444   
Si     0.209716666667     0.141333333333     0.265061111111   
O      0.389466666667     0.110583333333     0.254744444444   
Si     0.358666666667     0.068383333333     0.265061111111   
O      0.389416666667     0.278883333333     0.254744444444   
Si     0.431616666667     0.290283333333     0.265061111111   
O      0.378666666667     0.333333333333     0.277777777778   
Si     0.358666666667     0.290283333333     0.265061111111   
O      0.166666666667     0.045333333333     0.277777777778   
Si     0.209716666667     0.068383333333     0.265061111111   
O      0.454666666667     0.121333333333     0.277777777778   
Si     0.431616666667     0.141333333333     0.265061111111   
O      0.099316666667     0.499983333333     0.249994444444   
O      0.116366666667     0.499983333333     0.333327777778   
Si     0.123616666667     0.025333333333     0.290494444444   
O      0.000016666667     0.099333333333     0.249994444444   
O      0.000016666667     0.116383333333     0.333327777778   
Si     0.474666666667     0.098283333333     0.290494444444   
O      0.383616666667     0.383633333333     0.333327777778   
Si     0.401716666667     0.376383333333     0.290494444444   
O      0.333350000000     0.067350000000     0.472216666667   
O      0.288000000000     0.000000000000     0.333333333333   
O      0.277200000000     0.054450000000     0.356366666667   
O      0.333350000000     0.050300000000     0.388883333333   
Si     0.308000000000     0.043050000000     0.346050000000   
O      0.432650000000     0.266000000000     0.472216666667   
O      0.000000000000     0.288000000000     0.333333333333   
O      0.445550000000     0.222750000000     0.356366666667   
O      0.449700000000     0.283050000000     0.388883333333   
Si     0.456950000000     0.264950000000     0.346050000000   
O      0.234000000000     0.166650000000     0.472216666667   
O      0.212000000000     0.212000000000     0.333333333333   
O      0.277250000000     0.222800000000     0.356366666667   
O      0.216950000000     0.166650000000     0.388883333333   
Si     0.235050000000     0.192000000000     0.346050000000   
O      0.067350000000     0.333350000000     0.361116666667   
O      0.054450000000     0.277200000000     0.476966666667   
O      0.050300000000     0.333350000000     0.444450000000   
Si     0.043050000000     0.308000000000     0.487283333333   
O      0.166650000000     0.234000000000     0.361116666667   
O      0.222800000000     0.277250000000     0.476966666667   
O      0.166650000000     0.216950000000     0.444450000000   
Si     0.192000000000     0.235050000000     0.487283333333   
O      0.266000000000     0.432650000000     0.361116666667   
O      0.222750000000     0.445550000000     0.476966666667   
O      0.283050000000     0.449700000000     0.444450000000   
Si     0.264950000000     0.456950000000     0.487283333333   
O      0.166650000000     0.432650000000     0.361116666667   
O      0.212000000000     0.000000000000     0.333333333333   
O      0.166650000000     0.449700000000     0.444450000000   
Si     0.192000000000     0.456950000000     0.487283333333   
O      0.067350000000     0.234000000000     0.361116666667   
O      0.000000000000     0.212000000000     0.333333333333   
O      0.050300000000     0.216950000000     0.444450000000   
Si     0.043050000000     0.235050000000     0.487283333333   
O      0.266000000000     0.333350000000     0.361116666667   
O      0.288000000000     0.288000000000     0.333333333333   
O      0.283050000000     0.333350000000     0.444450000000   
Si     0.264950000000     0.308000000000     0.487283333333   
O      0.432650000000     0.166650000000     0.472216666667   
O      0.449700000000     0.166650000000     0.388883333333   
Si     0.456950000000     0.192000000000     0.346050000000   
O      0.333350000000     0.266000000000     0.472216666667   
O      0.333350000000     0.283050000000     0.388883333333   
Si     0.308000000000     0.264950000000     0.346050000000   
O      0.234000000000     0.067350000000     0.472216666667   
O      0.216950000000     0.050300000000     0.388883333333   
Si     0.235050000000     0.043050000000     0.346050000000   
O      0.121333333333     0.166666666667     0.388888888889   
O      0.110533333333     0.221116666667     0.411922222222   
Si     0.141333333333     0.209716666667     0.401605555556   
O      0.333333333333     0.454666666667     0.388888888889   
O      0.278883333333     0.389416666667     0.411922222222   
Si     0.290283333333     0.431616666667     0.401605555556   
O      0.045333333333     0.378666666667     0.388888888889   
O      0.110583333333     0.389466666667     0.411922222222   
Si     0.068383333333     0.358666666667     0.401605555556   
O      0.400683333333     0.000016666667     0.416672222222   
O      0.387783333333     0.443866666667     0.365855555556   
O      0.383633333333     0.000016666667     0.333338888889   
Si     0.376383333333     0.474666666667     0.376172222222   
O      0.499983333333     0.400666666667     0.416672222222   
O      0.056133333333     0.443916666667     0.365855555556   
O      0.499983333333     0.383616666667     0.333338888889   
Si     0.025333333333     0.401716666667     0.376172222222   
O      0.099333333333     0.099316666667     0.416672222222   
O      0.056083333333     0.112216666667     0.365855555556   
Si     0.098283333333     0.123616666667     0.376172222222   
O      0.499983333333     0.099316666667     0.416672222222   
O      0.045333333333     0.166666666667     0.388888888889   
O      0.499983333333     0.116366666667     0.333338888889   
Si     0.025333333333     0.123616666667     0.376172222222   
O      0.400683333333     0.400666666667     0.416672222222   
O      0.333333333333     0.378666666667     0.388888888889   
Si     0.376383333333     0.401716666667     0.376172222222   
O      0.099333333333     0.000016666667     0.416672222222   
O      0.121333333333     0.454666666667     0.388888888889   
O      0.116383333333     0.000016666667     0.333338888889   
Si     0.098283333333     0.474666666667     0.376172222222   
Si     0.290283333333     0.358666666667     0.401605555556   
Si     0.141333333333     0.431616666667     0.401605555556   
Si     0.068383333333     0.209716666667     0.401605555556   
O      0.000016666667     0.400683333333     0.416661111111   
O      0.454666666667     0.333333333333     0.444444444444   
O      0.443866666667     0.387783333333     0.467477777778   
O      0.000016666667     0.383633333333     0.499994444444   
Si     0.474666666667     0.376383333333     0.457161111111   
O      0.166666666667     0.121333333333     0.444444444444   
O      0.112216666667     0.056083333333     0.467477777778   
O      0.116366666667     0.116383333333     0.499994444444   
Si     0.123616666667     0.098283333333     0.457161111111   
O      0.400666666667     0.499983333333     0.416661111111   
O      0.378666666667     0.045333333333     0.444444444444   
O      0.443916666667     0.056133333333     0.467477777778   
O      0.383616666667     0.499983333333     0.499994444444   
Si     0.401716666667     0.025333333333     0.457161111111   
O      0.221116666667     0.110533333333     0.421411111111   
Si     0.209716666667     0.141333333333     0.431727777778   
O      0.389466666667     0.110583333333     0.421411111111   
Si     0.358666666667     0.068383333333     0.431727777778   
O      0.389416666667     0.278883333333     0.421411111111   
Si     0.431616666667     0.290283333333     0.431727777778   
O      0.378666666667     0.333333333333     0.444444444444   
Si     0.358666666667     0.290283333333     0.431727777778   
O      0.166666666667     0.045333333333     0.444444444444   
Si     0.209716666667     0.068383333333     0.431727777778   
O      0.454666666667     0.121333333333     0.444444444444   
Si     0.431616666667     0.141333333333     0.431727777778   
O      0.099316666667     0.499983333333     0.416661111111   
O      0.116366666667     0.499983333333     0.499994444444   
Si     0.123616666667     0.025333333333     0.457161111111   
O      0.000016666667     0.099333333333     0.416661111111   
O      0.000016666667     0.116383333333     0.499994444444   
Si     0.474666666667     0.098283333333     0.457161111111   
O      0.383616666667     0.383633333333     0.499994444444   
Si     0.401716666667     0.376383333333     0.457161111111   
O      0.333350000000     0.067350000000     0.638883333333   
O      0.288000000000     0.000000000000     0.500000000000   
O      0.277200000000     0.054450000000     0.523033333333   
O      0.333350000000     0.050300000000     0.555550000000   
Si     0.308000000000     0.043050000000     0.512716666667   
O      0.432650000000     0.266000000000     0.638883333333   
O      0.000000000000     0.288000000000     0.500000000000   
O      0.445550000000     0.222750000000     0.523033333333   
O      0.449700000000     0.283050000000     0.555550000000   
Si     0.456950000000     0.264950000000     0.512716666667   
O      0.234000000000     0.166650000000     0.638883333333   
O      0.212000000000     0.212000000000     0.500000000000   
O      0.277250000000     0.222800000000     0.523033333333   
O      0.216950000000     0.166650000000     0.555550000000   
Si     0.235050000000     0.192000000000     0.512716666667   
O      0.067350000000     0.333350000000     0.527783333333   
O      0.054450000000     0.277200000000     0.643633333333   
O      0.050300000000     0.333350000000     0.611116666667   
Si     0.043050000000     0.308000000000     0.653950000000   
O      0.166650000000     0.234000000000     0.527783333333   
O      0.222800000000     0.277250000000     0.643633333333   
O      0.166650000000     0.216950000000     0.611116666667   
Si     0.192000000000     0.235050000000     0.653950000000   
O      0.266000000000     0.432650000000     0.527783333333   
O      0.222750000000     0.445550000000     0.643633333333   
O      0.283050000000     0.449700000000     0.611116666667   
Si     0.264950000000     0.456950000000     0.653950000000   
O      0.166650000000     0.432650000000     0.527783333333   
O      0.212000000000     0.000000000000     0.500000000000   
O      0.166650000000     0.449700000000     0.611116666667   
Si     0.192000000000     0.456950000000     0.653950000000   
O      0.067350000000     0.234000000000     0.527783333333   
O      0.000000000000     0.212000000000     0.500000000000   
O      0.050300000000     0.216950000000     0.611116666667   
Si     0.043050000000     0.235050000000     0.653950000000   
O      0.266000000000     0.333350000000     0.527783333333   
O      0.288000000000     0.288000000000     0.500000000000   
O      0.283050000000     0.333350000000     0.611116666667   
Si     0.264950000000     0.308000000000     0.653950000000   
O      0.432650000000     0.166650000000     0.638883333333   
O      0.449700000000     0.166650000000     0.555550000000   
Si     0.456950000000     0.192000000000     0.512716666667   
O      0.333350000000     0.266000000000     0.638883333333   
O      0.333350000000     0.283050000000     0.555550000000   
Si     0.308000000000     0.264950000000     0.512716666667   
O      0.234000000000     0.067350000000     0.638883333333   
O      0.216950000000     0.050300000000     0.555550000000   
Si     0.235050000000     0.043050000000     0.512716666667   
O      0.121333333333     0.166666666667     0.555555555556   
O      0.110533333333     0.221116666667     0.578588888889   
Si     0.141333333333     0.209716666667     0.568272222222   
O      0.333333333333     0.454666666667     0.555555555556   
O      0.278883333333     0.389416666667     0.578588888889   
Si     0.290283333333     0.431616666667     0.568272222222   
O      0.045333333333     0.378666666667     0.555555555556   
O      0.110583333333     0.389466666667     0.578588888889   
Si     0.068383333333     0.358666666667     0.568272222222   
O      0.400683333333     0.000016666667     0.583338888889   
O      0.387783333333     0.443866666667     0.532522222222   
O      0.383633333333     0.000016666667     0.500005555556   
Si     0.376383333333     0.474666666667     0.542838888889   
O      0.499983333333     0.400666666667     0.583338888889   
O      0.056133333333     0.443916666667     0.532522222222   
O      0.499983333333     0.383616666667     0.500005555556   
Si     0.025333333333     0.401716666667     0.542838888889   
O      0.099333333333     0.099316666667     0.583338888889   
O      0.056083333333     0.112216666667     0.532522222222   
Si     0.098283333333     0.123616666667     0.542838888889   
O      0.499983333333     0.099316666667     0.583338888889   
O      0.045333333333     0.166666666667     0.555555555556   
O      0.499983333333     0.116366666667     0.500005555556   
Si     0.025333333333     0.123616666667     0.542838888889   
O      0.400683333333     0.400666666667     0.583338888889   
O      0.333333333333     0.378666666667     0.555555555556   
Si     0.376383333333     0.401716666667     0.542838888889   
O      0.099333333333     0.000016666667     0.583338888889   
O      0.121333333333     0.454666666667     0.555555555556   
O      0.116383333333     0.000016666667     0.500005555556   
Si     0.098283333333     0.474666666667     0.542838888889   
Si     0.290283333333     0.358666666667     0.568272222222   
Si     0.141333333333     0.431616666667     0.568272222222   
Si     0.068383333333     0.209716666667     0.568272222222   
O      0.000016666667     0.400683333333     0.583327777778   
O      0.454666666667     0.333333333333     0.611111111111   
O      0.443866666667     0.387783333333     0.634144444444   
O      0.000016666667     0.383633333333     0.666661111111   
Si     0.474666666667     0.376383333333     0.623827777778   
O      0.166666666667     0.121333333333     0.611111111111   
O      0.112216666667     0.056083333333     0.634144444444   
O      0.116366666667     0.116383333333     0.666661111111   
Si     0.123616666667     0.098283333333     0.623827777778   
O      0.400666666667     0.499983333333     0.583327777778   
O      0.378666666667     0.045333333333     0.611111111111   
O      0.443916666667     0.056133333333     0.634144444444   
O      0.383616666667     0.499983333333     0.666661111111   
Si     0.401716666667     0.025333333333     0.623827777778   
O      0.221116666667     0.110533333333     0.588077777778   
Si     0.209716666667     0.141333333333     0.598394444444   
O      0.389466666667     0.110583333333     0.588077777778   
Si     0.358666666667     0.068383333333     0.598394444444   
O      0.389416666667     0.278883333333     0.588077777778   
Si     0.431616666667     0.290283333333     0.598394444444   
O      0.378666666667     0.333333333333     0.611111111111   
Si     0.358666666667     0.290283333333     0.598394444444   
O      0.166666666667     0.045333333333     0.611111111111   
Si     0.209716666667     0.068383333333     0.598394444444   
O      0.454666666667     0.121333333333     0.611111111111   
Si     0.431616666667     0.141333333333     0.598394444444   
O      0.099316666667     0.499983333333     0.583327777778   
O      0.116366666667     0.499983333333     0.666661111111   
Si     0.123616666667     0.025333333333     0.623827777778   
O      0.000016666667     0.099333333333     0.583327777778   
O      0.000016666667     0.116383333333     0.666661111111   
Si     0.474666666667     0.098283333333     0.623827777778   
O      0.383616666667     0.383633333333     0.666661111111   
Si     0.401716666667     0.376383333333     0.623827777778   
O      0.333350000000     0.067350000000     0.805550000000   
O      0.288000000000     0.000000000000     0.666666666667   
O      0.277200000000     0.054450000000     0.689700000000   
O      0.333350000000     0.050300000000     0.722216666667   
Si     0.308000000000     0.043050000000     0.679383333333   
O      0.432650000000     0.266000000000     0.805550000000   