%BLOCK LATTICE_CART
ang    # angstrom units
  12.884120000000    0.000000000000     0.000000000000   
 -6.442060000000     11.157975225407    0.000000000000   
  0.000000000000     0.000000000000     40.361330000000  
%ENDBLOCK LATTICE_CART

%BLOCK POSITIONS_FRAC
Si     0.079730000000     0.000143333333     0.038210000000   
Si     0.141816666667     0.031770000000     0.094610000000   
Si     0.333036666667     0.079926666667     0.155420000000   
Si     0.031723333333     0.142923333333     0.211790000000   
O      0.043153333333     0.290180000000     0.048050000000   
O      0.117626666667     0.010363333333     0.061310000000   
O      0.066786666667     0.033393333333     0.043580000000   
O      0.091576666667     0.000000000000     0.000000000000   
O      0.158106666667     0.079053333333     0.092300000000   
O      0.112586666667     0.013743333333     0.126080000000   
O      0.178496666667     0.023660000000     0.099060000000   
O      0.299553333333     0.033780000000     0.160600000000   
O      0.004883333333     0.104306666667     0.189140000000   
O      0.041503333333     0.083006666667     0.145620000000   
O      0.078166666667     0.156333333333     0.207390000000   
O      0.019046666667     0.131906666667     0.250000000000   
O      0.024773333333     0.179053333333     0.200840000000   
Si     0.079586666667     0.079730000000     0.538210000000   
Si     0.110046666667     0.141816666667     0.594610000000   
Si     0.253110000000     0.333036666667     0.655420000000   
Si     0.222133333333     0.031723333333     0.711790000000   
O      0.086306666667     0.043153333333     0.548050000000   
O      0.107263333333     0.117626666667     0.561310000000   
O      0.033393333333     0.066786666667     0.543580000000   
O      0.091576666667     0.091576666667     0.500000000000   
O      0.079053333333     0.158106666667     0.592300000000   
O      0.098843333333     0.112586666667     0.626080000000   
O      0.154836666667     0.178496666667     0.599060000000   
O      0.265773333333     0.299553333333     0.660600000000   
O      0.233910000000     0.004883333333     0.689140000000   
O      0.291830000000     0.041503333333     0.645620000000   
O      0.255166666667     0.078166666667     0.707390000000   
O      0.220473333333     0.019046666667     0.750000000000   
O      0.179053333333     0.024773333333     0.700840000000   
Si     0.333190000000     0.079586666667     0.038210000000   
Si     0.301563333333     0.110046666667     0.094610000000   
Si     0.253406666667     0.253110000000     0.155420000000   
Si     0.190410000000     0.222133333333     0.211790000000   
O      0.043153333333     0.086306666667     0.048050000000   
O      0.322970000000     0.107263333333     0.061310000000   
O      0.299940000000     0.033393333333     0.043580000000   
O      0.000000000000     0.091576666667     0.000000000000   
O      0.254280000000     0.079053333333     0.092300000000   
O      0.319590000000     0.098843333333     0.126080000000   
O      0.309673333333     0.154836666667     0.099060000000   
O      0.299553333333     0.265773333333     0.160600000000   
O      0.229026666667     0.233910000000     0.189140000000   
O      0.250326666667     0.291830000000     0.145620000000   
O      0.177000000000     0.255166666667     0.207390000000   
O      0.201426666667     0.220473333333     0.250000000000   
O      0.154280000000     0.179053333333     0.200840000000   
Si     0.253603333333     0.333190000000     0.538210000000   
Si     0.191516666667     0.301563333333     0.594610000000   
Si     0.000296666667     0.253406666667     0.655420000000   
Si     0.301610000000     0.190410000000     0.711790000000   
O      0.290180000000     0.043153333333     0.548050000000   
O      0.215706666667     0.322970000000     0.561310000000   
O      0.266546666667     0.299940000000     0.543580000000   
O      0.241756666667     0.000000000000     0.500000000000   
O      0.175226666667     0.254280000000     0.592300000000   
O      0.220746666667     0.319590000000     0.626080000000   
O      0.154836666667     0.309673333333     0.599060000000   
O      0.033780000000     0.299553333333     0.660600000000   
O      0.328450000000     0.229026666667     0.689140000000   
O      0.291830000000     0.250326666667     0.645620000000   
O      0.255166666667     0.177000000000     0.707390000000   
O      0.314286666667     0.201426666667     0.750000000000   
O      0.308560000000     0.154280000000     0.700840000000   
Si     0.253746666667     0.253603333333     0.038210000000   
Si     0.223286666667     0.191516666667     0.094610000000   
Si     0.080223333333     0.000296666667     0.155420000000   
Si     0.111200000000     0.301610000000     0.211790000000   
O      0.247026666667     0.290180000000     0.048050000000   
O      0.226070000000     0.215706666667     0.061310000000   
O      0.299940000000     0.266546666667     0.043580000000   
O      0.241756666667     0.241756666667     0.000000000000   
O      0.254280000000     0.175226666667     0.092300000000   
O      0.234490000000     0.220746666667     0.126080000000   
O      0.178496666667     0.154836666667     0.099060000000   
O      0.067560000000     0.033780000000     0.160600000000   
O      0.099423333333     0.328450000000     0.189140000000   
O      0.041503333333     0.291830000000     0.145620000000   
O      0.078166666667     0.255166666667     0.207390000000   
O      0.112860000000     0.314286666667     0.250000000000   
O      0.154280000000     0.308560000000     0.200840000000   
Si     0.000143333333     0.253746666667     0.538210000000   
Si     0.031770000000     0.223286666667     0.594610000000   
Si     0.079926666667     0.080223333333     0.655420000000   
Si     0.142923333333     0.111200000000     0.711790000000   
O      0.290180000000     0.247026666667     0.548050000000   
O      0.010363333333     0.226070000000     0.561310000000   
O      0.033393333333     0.299940000000     0.543580000000   
O      0.000000000000     0.241756666667     0.500000000000   
O      0.079053333333     0.254280000000     0.592300000000   
O      0.013743333333     0.234490000000     0.626080000000   
O      0.023660000000     0.178496666667     0.599060000000   
O      0.033780000000     0.067560000000     0.660600000000   
O      0.104306666667     0.099423333333     0.689140000000   
O      0.083006666667     0.041503333333     0.645620000000   
O      0.156333333333     0.078166666667     0.707390000000   
O      0.131906666667     0.112860000000     0.750000000000   
O      0.179053333333     0.154280000000     0.700840000000   
Si     0.333190000000     0.253603333333     0.461790000000   
Si     0.301563333333     0.191516666667     0.405390000000   
Si     0.253406666667     0.000296666667     0.344580000000   
Si     0.190410000000     0.301610000000     0.288210000000   
O      0.043153333333     0.290180000000     0.451950000000   
O      0.322970000000     0.215706666667     0.438690000000   
O      0.299940000000     0.266546666667     0.456420000000   
O      0.254280000000     0.175226666667     0.407700000000   
O      0.319590000000     0.220746666667     0.373920000000   
O      0.309673333333     0.154836666667     0.400940000000   
O      0.299553333333     0.033780000000     0.339400000000   
O      0.229026666667     0.328450000000     0.310860000000   
O      0.250326666667     0.291830000000     0.354380000000   
O      0.177000000000     0.255166666667     0.292610000000   
O      0.201426666667     0.314286666667     0.250000000000   
O      0.154280000000     0.308560000000     0.299160000000   
Si     0.079586666667     0.333190000000     0.961790000000   
Si     0.110046666667     0.301563333333     0.905390000000   
Si     0.253110000000     0.253406666667     0.844580000000   
Si     0.222133333333     0.190410000000     0.788210000000   
O      0.086306666667     0.043153333333     0.951950000000   
O      0.107263333333     0.322970000000     0.938690000000   
O      0.033393333333     0.299940000000     0.956420000000   
O      0.079053333333     0.254280000000     0.907700000000   
O      0.098843333333     0.319590000000     0.873920000000   
O      0.154836666667     0.309673333333     0.900940000000   
O      0.265773333333     0.299553333333     0.839400000000   
O      0.233910000000     0.229026666667     0.810860000000   
O      0.291830000000     0.250326666667     0.854380000000   
O      0.255166666667     0.177000000000     0.792610000000   
O      0.220473333333     0.201426666667     0.750000000000   
O      0.179053333333     0.154280000000     0.799160000000   
Si     0.079730000000     0.079586666667     0.461790000000   
Si     0.141816666667     0.110046666667     0.405390000000   
Si     0.333036666667     0.253110000000     0.344580000000   
Si     0.031723333333     0.222133333333     0.288210000000   
O      0.043153333333     0.086306666667     0.451950000000   
O      0.117626666667     0.107263333333     0.438690000000   
O      0.066786666667     0.033393333333     0.456420000000   
O      0.158106666667     0.079053333333     0.407700000000   
O      0.112586666667     0.098843333333     0.373920000000   
O      0.178496666667     0.154836666667     0.400940000000   
O      0.299553333333     0.265773333333     0.339400000000   
O      0.004883333333     0.233910000000     0.310860000000   
O      0.041503333333     0.291830000000     0.354380000000   
O      0.078166666667     0.255166666667     0.292610000000   
O      0.019046666667     0.220473333333     0.250000000000   
O      0.024773333333     0.179053333333     0.299160000000   
Si     0.000143333333     0.079730000000     0.961790000000   
Si     0.031770000000     0.141816666667     0.905390000000   
Si     0.079926666667     0.333036666667     0.844580000000   
Si     0.142923333333     0.031723333333     0.788210000000   
O      0.290180000000     0.043153333333     0.951950000000   
O      0.010363333333     0.117626666667     0.938690000000   
O      0.033393333333     0.066786666667     0.956420000000   
O      0.079053333333     0.158106666667     0.907700000000   
O      0.013743333333     0.112586666667     0.873920000000   
O      0.023660000000     0.178496666667     0.900940000000   
O      0.033780000000     0.299553333333     0.839400000000   
O      0.104306666667     0.004883333333     0.810860000000   
O      0.083006666667     0.041503333333     0.854380000000   
O      0.156333333333     0.078166666667     0.792610000000   
O      0.131906666667     0.019046666667     0.750000000000   
O      0.179053333333     0.024773333333     0.799160000000   
Si     0.253746666667     0.000143333333     0.461790000000   
Si     0.223286666667     0.031770000000     0.405390000000   
Si     0.080223333333     0.079926666667     0.344580000000   
Si     0.111200000000     0.142923333333     0.288210000000   
O      0.247026666667     0.290180000000     0.451950000000   
O      0.226070000000     0.010363333333     0.438690000000   
O      0.299940000000     0.033393333333     0.456420000000   
O      0.254280000000     0.079053333333     0.407700000000   
O      0.234490000000     0.013743333333     0.373920000000   
O      0.178496666667     0.023660000000     0.400940000000   
O      0.067560000000     0.033780000000     0.339400000000   
O      0.099423333333     0.104306666667     0.310860000000   
O      0.041503333333     0.083006666667     0.354380000000   
O      0.078166666667     0.156333333333     0.292610000000   
O      0.112860000000     0.131906666667     0.250000000000   
O      0.154280000000     0.179053333333     0.299160000000   
Si     0.253603333333     0.253746666667     0.961790000000   
Si     0.191516666667     0.223286666667     0.905390000000   
Si     0.000296666667     0.080223333333     0.844580000000   
Si     0.301610000000     0.111200000000     0.788210000000   
O      0.290180000000     0.247026666667     0.951950000000   
O      0.215706666667     0.226070000000     0.938690000000   
O      0.266546666667     0.299940000000     0.956420000000   
O      0.175226666667     0.254280000000     0.907700000000   
O      0.220746666667     0.234490000000     0.873920000000   
O      0.154836666667     0.178496666667     0.900940000000   
O      0.033780000000     0.067560000000     0.839400000000   
O      0.328450000000     0.099423333333     0.810860000000   
O      0.291830000000     0.041503333333     0.854380000000   
O      0.255166666667     0.078166666667     0.792610000000   
O      0.314286666667     0.112860000000     0.750000000000   
O      0.308560000000     0.154280000000     0.799160000000   
Si     0.253603333333     0.333190000000     0.961790000000   
Si     0.191516666667     0.301563333333     0.905390000000   
Si     0.000296666667     0.253406666667     0.844580000000   
Si     0.301610000000     0.190410000000     0.788210000000   
O      0.215706666667     0.322970000000     0.938690000000   
O      0.241756666667     0.000000000000     0.000000000000   
O      0.220746666667     0.319590000000     0.873920000000   
O      0.328450000000     0.229026666667     0.810860000000   
Si     0.253746666667     0.253603333333     0.461790000000   
Si     0.223286666667     0.191516666667     0.405390000000   
Si     0.080223333333     0.000296666667     0.344580000000   
Si     0.111200000000     0.301610000000     0.288210000000   
O      0.226070000000     0.215706666667     0.438690000000   
O      0.241756666667     0.241756666667     0.500000000000   
O      0.234490000000     0.220746666667     0.373920000000   
O      0.099423333333     0.328450000000     0.310860000000   
Si     0.000143333333     0.253746666667     0.961790000000   
Si     0.031770000000     0.223286666667     0.905390000000   
Si     0.079926666667     0.080223333333     0.844580000000   
Si     0.142923333333     0.111200000000     0.788210000000   
O      0.010363333333     0.226070000000     0.938690000000   
O      0.000000000000     0.241756666667     0.000000000000   
O      0.013743333333     0.234490000000     0.873920000000   
O      0.104306666667     0.099423333333     0.810860000000   
Si     0.079730000000     0.000143333333     0.461790000000   
Si     0.141816666667     0.031770000000     0.405390000000   
Si     0.333036666667     0.079926666667     0.344580000000   
Si     0.031723333333     0.142923333333     0.288210000000   
O      0.117626666667     0.010363333333     0.438690000000   
O      0.091576666667     0.000000000000     0.500000000000   
O      0.112586666667     0.013743333333     0.373920000000   
O      0.004883333333     0.104306666667     0.310860000000   
Si     0.079586666667     0.079730000000     0.961790000000   
Si     0.110046666667     0.141816666667     0.905390000000   
Si     0.253110000000     0.333036666667     0.844580000000   
Si     0.222133333333     0.031723333333     0.788210000000   
O      0.107263333333     0.117626666667     0.938690000000   
O      0.091576666667     0.091576666667     0.000000000000   
O      0.098843333333     0.112586666667     0.873920000000   
O      0.233910000000     0.004883333333     0.810860000000   
Si     0.333190000000     0.079586666667     0.461790000000   
Si     0.301563333333     0.110046666667     0.405390000000   
Si     0.253406666667     0.253110000000     0.344580000000   
Si     0.190410000000     0.222133333333     0.288210000000   
O      0.322970000000     0.107263333333     0.438690000000   
O      0.000000000000     0.091576666667     0.500000000000   
O      0.319590000000     0.098843333333     0.373920000000   
O      0.229026666667     0.233910000000     0.310860000000   
Si     0.000143333333     0.079730000000     0.538210000000   
Si     0.031770000000     0.141816666667     0.594610000000   
Si     0.079926666667     0.333036666667     0.655420000000   
Si     0.142923333333     0.031723333333     0.711790000000   
O      0.010363333333     0.117626666667     0.561310000000   
O      0.013743333333     0.112586666667     0.626080000000   
O      0.104306666667     0.004883333333     0.689140000000   
Si     0.253746666667     0.000143333333     0.038210000000   
Si     0.223286666667     0.031770000000     0.094610000000   
Si     0.080223333333     0.079926666667     0.155420000000   
Si     0.111200000000     0.142923333333     0.211790000000   
O      0.226070000000     0.010363333333     0.061310000000   
O      0.234490000000     0.013743333333     0.126080000000   
O      0.099423333333     0.104306666667     0.189140000000   
Si     0.253603333333     0.253746666667     0.538210000000   
Si     0.191516666667     0.223286666667     0.594610000000   
Si     0.000296666667     0.080223333333     0.655420000000   
Si     0.301610000000     0.111200000000     0.711790000000   
O      0.215706666667     0.226070000000     0.561310000000   
O      0.220746666667     0.234490000000     0.626080000000   
O      0.328450000000     0.099423333333     0.689140000000   
Si     0.333190000000     0.253603333333     0.038210000000   
Si     0.301563333333     0.191516666667     0.094610000000   
Si     0.253406666667     0.000296666667     0.155420000000   
Si     0.190410000000     0.301610000000     0.211790000000   
O      0.322970000000     0.215706666667     0.061310000000   
O      0.319590000000     0.220746666667     0.126080000000   
O      0.229026666667     0.328450000000     0.189140000000   
Si     0.079586666667     0.333190000000     0.538210000000   
Si     0.110046666667     0.301563333333     0.594610000000   
Si     0.253110000000     0.253406666667     0.655420000000   
Si     0.222133333333     0.190410000000     0.711790000000   
O      0.107263333333     0.322970000000     0.561310000000   
O      0.098843333333     0.319590000000     0.626080000000   
O      0.233910000000     0.229026666667     0.689140000000   
Si     0.079730000000     0.079586666667     0.038210000000   
Si     0.141816666667     0.110046666667     0.094610000000   
Si     0.333036666667     0.253110000000     0.155420000000   
Si     0.031723333333     0.222133333333     0.211790000000   
O      0.117626666667     0.107263333333     0.061310000000   
O      0.112586666667     0.098843333333     0.126080000000   
O      0.004883333333     0.233910000000     0.189140000000   
Si     0.079730000000     0.333476666667     0.038210000000   
Si     0.141816666667     0.365103333333     0.094610000000   
Si     0.333036666667     0.413260000000     0.155420000000   
Si     0.031723333333     0.476256666667     0.211790000000   
O      0.043153333333     0.623513333333     0.048050000000   
O      0.117626666667     0.343696666667     0.061310000000   
O      0.066786666667     0.366726666667     0.043580000000   
O      0.091576666667     0.333333333333     0.000000000000   
O      0.158106666667     0.412386666667     0.092300000000   
O      0.112586666667     0.347076666667     0.126080000000   
O      0.178496666667     0.356993333333     0.099060000000   
O      0.299553333333     0.367113333333     0.160600000000   
O      0.004883333333     0.437640000000     0.189140000000   
O      0.041503333333     0.416340000000     0.145620000000   
O      0.078166666667     0.489666666667     0.207390000000   
O      0.019046666667     0.465240000000     0.250000000000   
O      0.024773333333     0.512386666667     0.200840000000   
Si     0.079586666667     0.413063333333     0.538210000000   
Si     0.110046666667     0.475150000000     0.594610000000   
Si     0.253110000000     0.666370000000     0.655420000000   
Si     0.222133333333     0.365056666667     0.711790000000   
O      0.086306666667     0.376486666667     0.548050000000   
O      0.107263333333     0.450960000000     0.561310000000   
O      0.033393333333     0.400120000000     0.543580000000   
O      0.091576666667     0.424910000000     0.500000000000   
O      0.079053333333     0.491440000000     0.592300000000   
O      0.098843333333     0.445920000000     0.626080000000   
O      0.154836666667     0.511830000000     0.599060000000   
O      0.265773333333     0.632886666667     0.660600000000   
O      0.233910000000     0.338216666667     0.689140000000   
O      0.291830000000     0.374836666667     0.645620000000   
O      0.255166666667     0.411500000000     0.707390000000   
O      0.220473333333     0.352380000000     0.750000000000   
O      0.179053333333     0.358106666667     0.700840000000   
Si     0.333190000000     0.412920000000     0.038210000000   
Si     0.301563333333     0.443380000000     0.094610000000   
Si     0.253406666667     0.586443333333     0.155420000000   
Si     0.190410000000     0.555466666667     0.211790000000   
O      0.043153333333     0.419640000000     0.048050000000   
O      0.322970000000     0.440596666667     0.061310000000   
O      0.299940000000     0.366726666667     0.043580000000   
O      0.000000000000     0.424910000000     0.000000000000   
O      0.254280000000     0.412386666667     0.092300000000   
O      0.319590000000     0.432176666667     0.126080000000   
O      0.309673333333     0.488170000000     0.099060000000   
O      0.299553333333     0.599106666667     0.160600000000   
O      0.229026666667     0.567243333333     0.189140000000   
O      0.250326666667     0.625163333333     0.145620000000   
O      0.177000000000     0.588500000000     0.207390000000   
O      0.201426666667     0.553806666667     0.250000000000   
O      0.154280000000     0.512386666667     0.200840000000   
Si     0.253603333333     0.666523333333     0.538210000000   
Si     0.191516666667     0.634896666667     0.594610000000   
Si     0.000296666667     0.586740000000     0.655420000000   
Si     0.301610000000     0.523743333333     0.711790000000   
O      0.290180000000     0.376486666667     0.548050000000   
O      0.215706666667     0.656303333333     0.561310000000   
O      0.266546666667     0.633273333333     0.543580000000   
O      0.241756666667     0.333333333333     0.500000000000   
O      0.175226666667     0.587613333333     0.592300000000   
O      0.220746666667     0.652923333333     0.626080000000   
O      0.154836666667     0.643006666667     0.599060000000   
O      0.033780000000     0.632886666667     0.660600000000   
O      0.328450000000     0.562360000000     0.689140000000   
O      0.291830000000     0.583660000000     0.645620000000   
O      0.255166666667     0.510333333333     0.707390000000   
O      0.314286666667     0.534760000000     0.750000000000   
O      0.308560000000     0.487613333333     0.700840000000   
Si     0.253746666667     0.586936666667     0.038210000000   
Si     0.223286666667     0.524850000000     0.094610000000   
Si     0.080223333333     0.333630000000     0.155420000000   
Si     0.111200000000     0.634943333333     0.211790000000   
O      0.247026666667     0.623513333333     0.048050000000   
O      0.226070000000     0.549040000000     0.061310000000   
O      0.299940000000     0.599880000000     0.043580000000   
O      0.241756666667     0.575090000000     0.000000000000   
O      0.254280000000     0.508560000000     0.092300000000   
O      0.234490000000     0.554080000000     0.126080000000   
O      0.178496666667     0.488170000000     0.099060000000   
O      0.067560000000     0.367113333333     0.160600000000   
O      0.099423333333     0.661783333333     0.189140000000   
O      0.041503333333     0.625163333333     0.145620000000   
O      0.078166666667     0.588500000000     0.207390000000   
O      0.112860000000     0.647620000000     0.250000000000   
O      0.154280000000     0.641893333333     0.200840000000   
Si     0.000143333333     0.587080000000     0.538210000000   
Si     0.031770000000     0.556620000000     0.594610000000   
Si     0.079926666667     0.413556666667     0.655420000000   
Si     0.142923333333     0.444533333333     0.711790000000   
O      0.290180000000     0.580360000000     0.548050000000   
O      0.010363333333     0.559403333333     0.561310000000   
O      0.033393333333     0.633273333333     0.543580000000   
O      0.000000000000     0.575090000000     0.500000000000   
O      0.079053333333     0.587613333333     0.592300000000   
O      0.013743333333     0.567823333333     0.626080000000   
O      0.023660000000     0.511830000000     0.599060000000   
O      0.033780000000     0.400893333333     0.660600000000   
O      0.104306666667     0.432756666667     0.689140000000   
O      0.083006666667     0.374836666667     0.645620000000   
O      0.156333333333     0.411500000000     0.707390000000   
O      0.131906666667     0.446193333333     0.750000000000   
O      0.179053333333     0.487613333333     0.700840000000   
Si     0.333190000000     0.586936666667     0.461790000000   
Si     0.301563333333     0.524850000000     0.405390000000   
Si     0.253406666667     0.333630000000     0.344580000000   
Si     0.190410000000     0.634943333333     0.288210000000   
O      0.043153333333     0.623513333333     0.451950000000   
O      0.322970000000     0.549040000000     0.438690000000   
O      0.299940000000     0.599880000000     0.456420000000   
O      0.254280000000     0.508560000000     0.407700000000   
O      0.319590000000     0.554080000000     0.373920000000   
O      0.309673333333     0.488170000000     0.400940000000   
O      0.299553333333     0.367113333333     0.339400000000   
O      0.229026666667     0.661783333333     0.310860000000   
O      0.250326666667     0.625163333333     0.354380000000   
O      0.177000000000     0.588500000000     0.292610000000   
O      0.201426666667     0.647620000000     0.250000000000   
O      0.154280000000     0.641893333333     0.299160000000   
Si     0.079586666667     0.666523333333     0.961790000000   
Si     0.110046666667     0.634896666667     0.905390000000   
Si     0.253110000000     0.586740000000     0.844580000000   
Si     0.222133333333     0.523743333333     0.788210000000   
O      0.086306666667     0.376486666667     0.951950000000   
O      0.107263333333     0.656303333333     0.938690000000   
O      0.033393333333     0.633273333333     0.956420000000   
O      0.079053333333     0.587613333333     0.907700000000   
O      0.098843333333     0.652923333333     0.873920000000   
O      0.154836666667     0.643006666667     0.900940000000   
O      0.265773333333     0.632886666667     0.839400000000   
O      0.233910000000     0.562360000000     0.810860000000   
O      0.291830000000     0.583660000000     0.854380000000   
O      0.255166666667     0.510333333333     0.792610000000   
O      0.220473333333     0.534760000000     0.750000000000   
O      0.179053333333     0.487613333333     0.799160000000   
Si     0.079730000000     0.412920000000     0.461790000000   
Si     0.141816666667     0.443380000000     0.405390000000   
Si     0.333036666667     0.586443333333     0.344580000000   
Si     0.031723333333     0.555466666667     0.288210000000   
O      0.043153333333     0.419640000000     0.451950000000   
O      0.117626666667     0.440596666667     0.438690000000   
O      0.066786666667     0.366726666667     0.456420000000   
O      0.158106666667     0.412386666667     0.407700000000   
O      0.112586666667     0.432176666667     0.373920000000   
O      0.178496666667     0.488170000000     0.400940000000   
O      0.299553333333     0.599106666667     0.339400000000   
O      0.004883333333     0.567243333333     0.310860000000   
O      0.041503333333     0.625163333333     0.354380000000   
O      0.078166666667     0.588500000000     0.292610000000   
O      0.019046666667     0.553806666667     0.250000000000   
O      0.024773333333     0.512386666667     0.299160000000   
Si     0.000143333333     0.413063333333     0.961790000000   
Si     0.031770000000     0.475150000000     0.905390000000   
Si     0.079926666667     0.666370000000     0.844580000000   
Si     0.142923333333     0.365056666667     0.788210000000   
O      0.290180000000     0.376486666667     0.951950000000   
O      0.010363333333     0.450960000000     0.938690000000   
O      0.033393333333     0.400120000000     0.956420000000   
O      0.079053333333     0.491440000000     0.907700000000   
O      0.013743333333     0.445920000000     0.873920000000   
O      0.023660000000     0.511830000000     0.900940000000   
O      0.033780000000     0.632886666667     0.839400000000   
O      0.104306666667     0.338216666667     0.810860000000   
O      0.083006666667     0.374836666667     0.854380000000   
O      0.156333333333     0.411500000000     0.792610000000   
O      0.131906666667     0.352380000000     0.750000000000   
O      0.179053333333     0.358106666667     0.799160000000   
Si     0.253746666667     0.333476666667     0.461790000000   
Si     0.223286666667     0.365103333333     0.405390000000   
Si     0.080223333333     0.413260000000     0.344580000000   
Si     0.111200000000     0.476256666667     0.288210000000   
O      0.247026666667     0.623513333333     0.451950000000   
O      0.226070000000     0.343696666667     0.438690000000   
O      0.299940000000     0.366726666667     0.456420000000   
O      0.254280000000     0.412386666667     0.407700000000   
O      0.234490000000     0.347076666667     0.373920000000   
O      0.178496666667     0.356993333333     0.400940000000   
O      0.067560000000     0.367113333333     0.339400000000   
O      0.099423333333     0.437640000000     0.310860000000   
O      0.041503333333     0.416340000000     0.354380000000   
O      0.078166666667     0.489666666667     0.292610000000   
O      0.112860000000     0.465240000000     0.250000000000   
O      0.154280000000     0.512386666667     0.299160000000   
Si     0.253603333333     0.587080000000     0.961790000000   
Si     0.191516666667     0.556620000000     0.905390000000   