%BLOCK LATTICE_CART
ang    # angstrom units
  13.114000000000    0.000000000000     0.000000000000   
 -6.557000000000     11.357057145229    0.000000000000   
  0.000000000000     0.000000000000     15.563000000000  
%ENDBLOCK LATTICE_CART

%BLOCK POSITIONS_FRAC
O      0.267666666667     0.075633333333     0.251950000000   
O      0.216533333333     0.070033333333     0.194050000000   
O      0.215366666667     0.006400000000     0.222200000000   
O      0.193333333333     0.045266666667     0.272900000000   
O      0.149933333333     0.052100000000     0.332750000000   
O      0.188166666667     0.118766666667     0.375000000000   
O      0.222233333333     0.111100000000     0.125000000000   
Si     0.223200000000     0.049300000000     0.235250000000   
Si     0.150633333333     0.039133333333     0.283850000000   
Si     0.175500000000     0.072966666667     0.375000000000   
Si     0.222233333333     0.111100000000     0.176650000000   
O      0.192033333333     0.267666666667     0.001950000000   
O      0.146500000000     0.216533333333     0.444050000000   
O      0.208966666667     0.215366666667     0.472200000000   
O      0.148066666667     0.193333333333     0.022900000000   
O      0.097833333333     0.149933333333     0.082750000000   
O      0.069400000000     0.188166666667     0.125000000000   
O      0.111133333333     0.222233333333     0.375000000000   
Si     0.173900000000     0.223200000000     0.485250000000   
Si     0.111500000000     0.150633333333     0.033850000000   
Si     0.102533333333     0.175500000000     0.125000000000   
Si     0.111133333333     0.222233333333     0.426650000000   
O      0.257700000000     0.192033333333     0.251950000000   
O      0.263300000000     0.146500000000     0.194050000000   
O      0.326933333333     0.208966666667     0.222200000000   
O      0.288066666667     0.148066666667     0.272900000000   
O      0.281233333333     0.097833333333     0.332750000000   
O      0.214566666667     0.069400000000     0.375000000000   
Si     0.284033333333     0.173900000000     0.235250000000   
Si     0.294200000000     0.111500000000     0.283850000000   
Si     0.260366666667     0.102533333333     0.375000000000   
O      0.065666666667     0.257700000000     0.001950000000   
O      0.116800000000     0.263300000000     0.444050000000   
O      0.117966666667     0.326933333333     0.472200000000   
O      0.140000000000     0.288066666667     0.022900000000   
O      0.183400000000     0.281233333333     0.082750000000   
O      0.145166666667     0.214566666667     0.125000000000   
Si     0.110133333333     0.284033333333     0.485250000000   
Si     0.182700000000     0.294200000000     0.033850000000   
Si     0.157833333333     0.260366666667     0.125000000000   
O      0.141300000000     0.065666666667     0.251950000000   
O      0.186833333333     0.116800000000     0.194050000000   
O      0.124366666667     0.117966666667     0.222200000000   
O      0.185266666667     0.140000000000     0.272900000000   
O      0.235500000000     0.183400000000     0.332750000000   
O      0.263933333333     0.145166666667     0.375000000000   
Si     0.159433333333     0.110133333333     0.235250000000   
Si     0.221833333333     0.182700000000     0.283850000000   
Si     0.230800000000     0.157833333333     0.375000000000   
O      0.075633333333     0.141300000000     0.001950000000   
O      0.070033333333     0.186833333333     0.444050000000   
O      0.006400000000     0.124366666667     0.472200000000   
O      0.045266666667     0.185266666667     0.022900000000   
O      0.052100000000     0.235500000000     0.082750000000   
O      0.118766666667     0.263933333333     0.125000000000   
Si     0.049300000000     0.159433333333     0.485250000000   
Si     0.039133333333     0.221833333333     0.033850000000   
Si     0.072966666667     0.230800000000     0.125000000000   
O      0.065666666667     0.257700000000     0.248050000000   
O      0.116800000000     0.263300000000     0.305950000000   
O      0.117966666667     0.326933333333     0.277800000000   
O      0.140000000000     0.288066666667     0.227100000000   
O      0.183400000000     0.281233333333     0.167250000000   
Si     0.110133333333     0.284033333333     0.264750000000   
Si     0.182700000000     0.294200000000     0.216150000000   
Si     0.111100000000     0.222233333333     0.323350000000   
O      0.141300000000     0.065666666667     0.498050000000   
O      0.186833333333     0.116800000000     0.055950000000   
O      0.124366666667     0.117966666667     0.027800000000   
O      0.185266666667     0.140000000000     0.477100000000   
O      0.235500000000     0.183400000000     0.417250000000   
Si     0.159433333333     0.110133333333     0.014750000000   
Si     0.221833333333     0.182700000000     0.466150000000   
Si     0.222200000000     0.111100000000     0.073350000000   
O      0.075633333333     0.141300000000     0.248050000000   
O      0.070033333333     0.186833333333     0.305950000000   
O      0.006400000000     0.124366666667     0.277800000000   
O      0.045266666667     0.185266666667     0.227100000000   
O      0.052100000000     0.235500000000     0.167250000000   
Si     0.049300000000     0.159433333333     0.264750000000   
Si     0.039133333333     0.221833333333     0.216150000000   
O      0.267666666667     0.075633333333     0.498050000000   
O      0.216533333333     0.070033333333     0.055950000000   
O      0.215366666667     0.006400000000     0.027800000000   
O      0.193333333333     0.045266666667     0.477100000000   
O      0.149933333333     0.052100000000     0.417250000000   
Si     0.223200000000     0.049300000000     0.014750000000   
Si     0.150633333333     0.039133333333     0.466150000000   
O      0.192033333333     0.267666666667     0.248050000000   
O      0.146500000000     0.216533333333     0.305950000000   
O      0.208966666667     0.215366666667     0.277800000000   
O      0.148066666667     0.193333333333     0.227100000000   
O      0.097833333333     0.149933333333     0.167250000000   
Si     0.173900000000     0.223200000000     0.264750000000   
Si     0.111500000000     0.150633333333     0.216150000000   
O      0.257700000000     0.192033333333     0.498050000000   
O      0.263300000000     0.146500000000     0.055950000000   
O      0.326933333333     0.208966666667     0.027800000000   
O      0.288066666667     0.148066666667     0.477100000000   
O      0.281233333333     0.097833333333     0.417250000000   
Si     0.284033333333     0.173900000000     0.014750000000   
Si     0.294200000000     0.111500000000     0.466150000000   
O      0.267666666667     0.075633333333     0.751950000000   
O      0.216533333333     0.070033333333     0.694050000000   
O      0.215366666667     0.006400000000     0.722200000000   
O      0.193333333333     0.045266666667     0.772900000000   
O      0.149933333333     0.052100000000     0.832750000000   
O      0.188166666667     0.118766666667     0.875000000000   
O      0.222233333333     0.111100000000     0.625000000000   
Si     0.223200000000     0.049300000000     0.735250000000   
Si     0.150633333333     0.039133333333     0.783850000000   
Si     0.175500000000     0.072966666667     0.875000000000   
Si     0.222233333333     0.111100000000     0.676650000000   
O      0.192033333333     0.267666666667     0.501950000000   
O      0.146500000000     0.216533333333     0.944050000000   
O      0.208966666667     0.215366666667     0.972200000000   
O      0.148066666667     0.193333333333     0.522900000000   
O      0.097833333333     0.149933333333     0.582750000000   
O      0.069400000000     0.188166666667     0.625000000000   
O      0.111133333333     0.222233333333     0.875000000000   
Si     0.173900000000     0.223200000000     0.985250000000   
Si     0.111500000000     0.150633333333     0.533850000000   
Si     0.102533333333     0.175500000000     0.625000000000   
Si     0.111133333333     0.222233333333     0.926650000000   
O      0.257700000000     0.192033333333     0.751950000000   
O      0.263300000000     0.146500000000     0.694050000000   
O      0.326933333333     0.208966666667     0.722200000000   
O      0.288066666667     0.148066666667     0.772900000000   
O      0.281233333333     0.097833333333     0.832750000000   
O      0.214566666667     0.069400000000     0.875000000000   
Si     0.284033333333     0.173900000000     0.735250000000   
Si     0.294200000000     0.111500000000     0.783850000000   
Si     0.260366666667     0.102533333333     0.875000000000   
O      0.065666666667     0.257700000000     0.501950000000   
O      0.116800000000     0.263300000000     0.944050000000   
O      0.117966666667     0.326933333333     0.972200000000   
O      0.140000000000     0.288066666667     0.522900000000   
O      0.183400000000     0.281233333333     0.582750000000   
O      0.145166666667     0.214566666667     0.625000000000   
Si     0.110133333333     0.284033333333     0.985250000000   
Si     0.182700000000     0.294200000000     0.533850000000   
Si     0.157833333333     0.260366666667     0.625000000000   
O      0.141300000000     0.065666666667     0.751950000000   
O      0.186833333333     0.116800000000     0.694050000000   
O      0.124366666667     0.117966666667     0.722200000000   
O      0.185266666667     0.140000000000     0.772900000000   
O      0.235500000000     0.183400000000     0.832750000000   
O      0.263933333333     0.145166666667     0.875000000000   
Si     0.159433333333     0.110133333333     0.735250000000   
Si     0.221833333333     0.182700000000     0.783850000000   
Si     0.230800000000     0.157833333333     0.875000000000   
O      0.075633333333     0.141300000000     0.501950000000   
O      0.070033333333     0.186833333333     0.944050000000   
O      0.006400000000     0.124366666667     0.972200000000   
O      0.045266666667     0.185266666667     0.522900000000   
O      0.052100000000     0.235500000000     0.582750000000   
O      0.118766666667     0.263933333333     0.625000000000   
Si     0.049300000000     0.159433333333     0.985250000000   
Si     0.039133333333     0.221833333333     0.533850000000   
Si     0.072966666667     0.230800000000     0.625000000000   
O      0.065666666667     0.257700000000     0.748050000000   
O      0.116800000000     0.263300000000     0.805950000000   
O      0.117966666667     0.326933333333     0.777800000000   
O      0.140000000000     0.288066666667     0.727100000000   
O      0.183400000000     0.281233333333     0.667250000000   
Si     0.110133333333     0.284033333333     0.764750000000   
Si     0.182700000000     0.294200000000     0.716150000000   
Si     0.111100000000     0.222233333333     0.823350000000   
O      0.141300000000     0.065666666667     0.998050000000   
O      0.186833333333     0.116800000000     0.555950000000   
O      0.124366666667     0.117966666667     0.527800000000   
O      0.185266666667     0.140000000000     0.977100000000   
O      0.235500000000     0.183400000000     0.917250000000   
Si     0.159433333333     0.110133333333     0.514750000000   
Si     0.221833333333     0.182700000000     0.966150000000   
Si     0.222200000000     0.111100000000     0.573350000000   
O      0.075633333333     0.141300000000     0.748050000000   
O      0.070033333333     0.186833333333     0.805950000000   
O      0.006400000000     0.124366666667     0.777800000000   
O      0.045266666667     0.185266666667     0.727100000000   
O      0.052100000000     0.235500000000     0.667250000000   
Si     0.049300000000     0.159433333333     0.764750000000   
Si     0.039133333333     0.221833333333     0.716150000000   
O      0.267666666667     0.075633333333     0.998050000000   
O      0.216533333333     0.070033333333     0.555950000000   
O      0.215366666667     0.006400000000     0.527800000000   
O      0.193333333333     0.045266666667     0.977100000000   
O      0.149933333333     0.052100000000     0.917250000000   
Si     0.223200000000     0.049300000000     0.514750000000   
Si     0.150633333333     0.039133333333     0.966150000000   
O      0.192033333333     0.267666666667     0.748050000000   
O      0.146500000000     0.216533333333     0.805950000000   
O      0.208966666667     0.215366666667     0.777800000000   
O      0.148066666667     0.193333333333     0.727100000000   
O      0.097833333333     0.149933333333     0.667250000000   
Si     0.173900000000     0.223200000000     0.764750000000   
Si     0.111500000000     0.150633333333     0.716150000000   
O      0.257700000000     0.192033333333     0.998050000000   
O      0.263300000000     0.146500000000     0.555950000000   
O      0.326933333333     0.208966666667     0.527800000000   
O      0.288066666667     0.148066666667     0.977100000000   
O      0.281233333333     0.097833333333     0.917250000000   
Si     0.284033333333     0.173900000000     0.514750000000   
Si     0.294200000000     0.111500000000     0.966150000000   
O      0.267666666667     0.408966666667     0.251950000000   
O      0.216533333333     0.403366666667     0.194050000000   
O      0.215366666667     0.339733333333     0.222200000000   
O      0.193333333333     0.378600000000     0.272900000000   
O      0.149933333333     0.385433333333     0.332750000000   
O      0.188166666667     0.452100000000     0.375000000000   
O      0.222233333333     0.444433333333     0.125000000000   
Si     0.223200000000     0.382633333333     0.235250000000   
Si     0.150633333333     0.372466666667     0.283850000000   
Si     0.175500000000     0.406300000000     0.375000000000   
Si     0.222233333333     0.444433333333     0.176650000000   
O      0.192033333333     0.601000000000     0.001950000000   
O      0.146500000000     0.549866666667     0.444050000000   
O      0.208966666667     0.548700000000     0.472200000000   
O      0.148066666667     0.526666666667     0.022900000000   
O      0.097833333333     0.483266666667     0.082750000000   
O      0.069400000000     0.521500000000     0.125000000000   
O      0.111133333333     0.555566666667     0.375000000000   
Si     0.173900000000     0.556533333333     0.485250000000   
Si     0.111500000000     0.483966666667     0.033850000000   
Si     0.102533333333     0.508833333333     0.125000000000   
Si     0.111133333333     0.555566666667     0.426650000000   
O      0.257700000000     0.525366666667     0.251950000000   
O      0.263300000000     0.479833333333     0.194050000000   
O      0.326933333333     0.542300000000     0.222200000000   
O      0.288066666667     0.481400000000     0.272900000000   
O      0.281233333333     0.431166666667     0.332750000000   
O      0.214566666667     0.402733333333     0.375000000000   
Si     0.284033333333     0.507233333333     0.235250000000   
Si     0.294200000000     0.444833333333     0.283850000000   
Si     0.260366666667     0.435866666667     0.375000000000   
O      0.065666666667     0.591033333333     0.001950000000   
O      0.116800000000     0.596633333333     0.444050000000   
O      0.117966666667     0.660266666667     0.472200000000   
O      0.140000000000     0.621400000000     0.022900000000   
O      0.183400000000     0.614566666667     0.082750000000   
O      0.145166666667     0.547900000000     0.125000000000   
Si     0.110133333333     0.617366666667     0.485250000000   
Si     0.182700000000     0.627533333333     0.033850000000   
Si     0.157833333333     0.593700000000     0.125000000000   
O      0.141300000000     0.399000000000     0.251950000000   
O      0.186833333333     0.450133333333     0.194050000000   
O      0.124366666667     0.451300000000     0.222200000000   
O      0.185266666667     0.473333333333     0.272900000000   
O      0.235500000000     0.516733333333     0.332750000000   
O      0.263933333333     0.478500000000     0.375000000000   
Si     0.159433333333     0.443466666667     0.235250000000   
Si     0.221833333333     0.516033333333     0.283850000000   
Si     0.230800000000     0.491166666667     0.375000000000   
O      0.075633333333     0.474633333333     0.001950000000   
O      0.070033333333     0.520166666667     0.444050000000   
O      0.006400000000     0.457700000000     0.472200000000   
O      0.045266666667     0.518600000000     0.022900000000   
O      0.052100000000     0.568833333333     0.082750000000   
O      0.118766666667     0.597266666667     0.125000000000   
Si     0.049300000000     0.492766666667     0.485250000000   
Si     0.039133333333     0.555166666667     0.033850000000   
Si     0.072966666667     0.564133333333     0.125000000000   
O      0.065666666667     0.591033333333     0.248050000000   
O      0.116800000000     0.596633333333     0.305950000000   
O      0.117966666667     0.660266666667     0.277800000000   
O      0.140000000000     0.621400000000     0.227100000000   
O      0.183400000000     0.614566666667     0.167250000000   
Si     0.110133333333     0.617366666667     0.264750000000   
Si     0.182700000000     0.627533333333     0.216150000000   
Si     0.111100000000     0.555566666667     0.323350000000   
O      0.141300000000     0.399000000000     0.498050000000   
O      0.186833333333     0.450133333333     0.055950000000   
O      0.124366666667     0.451300000000     0.027800000000   
O      0.185266666667     0.473333333333     0.477100000000   
O      0.235500000000     0.516733333333     0.417250000000   
Si     0.159433333333     0.443466666667     0.014750000000   
Si     0.221833333333     0.516033333333     0.466150000000   
Si     0.222200000000     0.444433333333     0.073350000000   
O      0.075633333333     0.474633333333     0.248050000000   
O      0.070033333333     0.520166666667     0.305950000000   
O      0.006400000000     0.457700000000     0.277800000000   
O      0.045266666667     0.518600000000     0.227100000000   
O      0.052100000000     0.568833333333     0.167250000000   
Si     0.049300000000     0.492766666667     0.264750000000   
Si     0.039133333333     0.555166666667     0.216150000000   
O      0.267666666667     0.408966666667     0.498050000000   
O      0.216533333333     0.403366666667     0.055950000000   
O      0.215366666667     0.339733333333     0.027800000000   
O      0.193333333333     0.378600000000     0.477100000000   
O      0.149933333333     0.385433333333     0.417250000000   
Si     0.223200000000     0.382633333333     0.014750000000   
Si     0.150633333333     0.372466666667     0.466150000000   
O      0.192033333333     0.601000000000     0.248050000000   
O      0.146500000000     0.549866666667     0.305950000000   
O      0.208966666667     0.548700000000     0.277800000000   
O      0.148066666667     0.526666666667     0.227100000000   
O      0.097833333333     0.483266666667     0.167250000000   
Si     0.173900000000     0.556533333333     0.264750000000   
Si     0.111500000000     0.483966666667     0.216150000000   
O      0.257700000000     0.525366666667     0.498050000000   
O      0.263300000000     0.479833333333     0.055950000000   
O      0.326933333333     0.542300000000     0.027800000000   
O      0.288066666667     0.481400000000     0.477100000000   
O      0.281233333333     0.431166666667     0.417250000000   
Si     0.284033333333     0.507233333333     0.014750000000   
Si     0.294200000000     0.444833333333     0.466150000000   
O      0.267666666667     0.408966666667     0.751950000000   
O      0.216533333333     0.403366666667     0.694050000000   
O      0.215366666667     0.339733333333     0.722200000000   
O      0.193333333333     0.378600000000     0.772900000000   
O      0.149933333333     0.385433333333     0.832750000000   
O      0.188166666667     0.452100000000     0.875000000000   
O      0.222233333333     0.444433333333     0.625000000000   
Si     0.223200000000     0.382633333333     0.735250000000   
Si     0.150633333333     0.372466666667     0.783850000000   
Si     0.175500000000     0.406300000000     0.875000000000   
Si     0.222233333333     0.444433333333     0.676650000000   
O      0.192033333333     0.601000000000     0.501950000000   
O      0.146500000000     0.549866666667     0.944050000000   
O      0.208966666667     0.548700000000     0.972200000000   
O      0.148066666667     0.526666666667     0.522900000000   
O      0.097833333333     0.483266666667     0.582750000000   
O      0.069400000000     0.521500000000     0.625000000000   
O      0.111133333333     0.555566666667     0.875000000000   
Si     0.173900000000     0.556533333333     0.985250000000   
Si     0.111500000000     0.483966666667     0.533850000000   
Si     0.102533333333     0.508833333333     0.625000000000   
Si     0.111133333333     0.555566666667     0.926650000000   
O      0.257700000000     0.525366666667     0.751950000000   
O      0.263300000000     0.479833333333     0.694050000000   
O      0.326933333333     0.542300000000     0.722200000000   
O      0.288066666667     0.481400000000     0.772900000000   
O      0.281233333333     0.431166666667     0.832750000000   
O      0.214566666667     0.402733333333     0.875000000000   
Si     0.284033333333     0.507233333333     0.735250000000   
Si     0.294200000000     0.444833333333     0.783850000000   
Si     0.260366666667     0.435866666667     0.875000000000   
O      0.065666666667     0.591033333333     0.501950000000   
O      0.116800000000     0.596633333333     0.944050000000   
O      0.117966666667     0.660266666667     0.972200000000   
O      0.140000000000     0.621400000000     0.522900000000   
O      0.183400000000     0.614566666667     0.582750000000   
O      0.145166666667     0.547900000000     0.625000000000   
Si     0.110133333333     0.617366666667     0.985250000000   
Si     0.182700000000     0.627533333333     0.533850000000   
Si     0.157833333333     0.593700000000     0.625000000000   
O      0.141300000000     0.399000000000     0.751950000000   
O      0.186833333333     0.450133333333     0.694050000000   
O      0.124366666667     0.451300000000     0.722200000000   
O      0.185266666667     0.473333333333     0.772900000000   
O      0.235500000000     0.516733333333     0.832750000000   
O      0.263933333333     0.478500000000     0.875000000000   
Si     0.159433333333     0.443466666667     0.735250000000   
Si     0.221833333333     0.516033333333     0.783850000000   
Si     0.230800000000     0.491166666667     0.875000000000   
O      0.075633333333     0.474633333333     0.501950000000   
O      0.070033333333     0.520166666667     0.944050000000   
O      0.006400000000     0.457700000000     0.972200000000   
O      0.045266666667     0.518600000000     0.522900000000   
O      0.052100000000     0.568833333333     0.582750000000   
O      0.118766666667     0.597266666667     0.625000000000   
Si     0.049300000000     0.492766666667     0.985250000000   
Si     0.039133333333     0.555166666667     0.533850000000   
Si     0.072966666667     0.564133333333     0.625000000000   
O      0.065666666667     0.591033333333     0.748050000000   
O      0.116800000000     0.596633333333     0.805950000000   
O      0.117966666667     0.660266666667     0.777800000000   
O      0.140000000000     0.621400000000     0.727100000000   
O      0.183400000000     0.614566666667     0.667250000000   
Si     0.110133333333     0.617366666667     0.764750000000   
Si     0.182700000000     0.627533333333     0.716150000000   
Si     0.111100000000     0.555566666667     0.823350000000   
O      0.141300000000     0.399000000000     0.998050000000   
O      0.186833333333     0.450133333333     0.555950000000   
O      0.124366666667     0.451300000000     0.527800000000   
O      0.185266666667     0.473333333333     0.977100000000   
O      0.235500000000     0.516733333333     0.917250000000   
Si     0.159433333333     0.443466666667     0.514750000000   
Si     0.221833333333     0.516033333333     0.966150000000   
Si     0.222200000000     0.444433333333     0.573350000000   
O      0.075633333333     0.474633333333     0.748050000000   
O      0.070033333333     0.520166666667     0.805950000000   
O      0.006400000000     0.457700000000     0.777800000000   
O      0.045266666667     0.518600000000     0.727100000000   
O      0.052100000000     0.568833333333     0.667250000000   
Si     0.049300000000     0.492766666667     0.764750000000   
Si     0.039133333333     0.555166666667     0.716150000000   
O      0.267666666667     0.408966666667     0.998050000000   
O      0.216533333333     0.403366666667     0.555950000000   
O      0.215366666667     0.339733333333     0.527800000000   
O      0.193333333333     0.378600000000     0.977100000000   
O      0.149933333333     0.385433333333     0.917250000000   
Si     0.223200000000     0.382633333333     0.514750000000   
Si     0.150633333333     0.372466666667     0.966150000000   
O      0.192033333333     0.601000000000     0.748050000000   
O      0.146500000000     0.549866666667     0.805950000000   
O      0.208966666667     0.548700000000     0.777800000000   
O      0.148066666667     0.526666666667     0.727100000000   
O      0.097833333333     0.483266666667     0.667250000000   
Si     0.173900000000     0.556533333333     0.764750000000   
Si     0.111500000000     0.483966666667     0.716150000000   
O      0.257700000000     0.525366666667     0.998050000000   
O      0.263300000000     0.479833333333     0.555950000000   
O      0.326933333333     0.542300000000     0.527800000000   
O      0.288066666667     0.481400000000     0.977100000000   
O      0.281233333333     0.431166666667     0.917250000000   
Si     0.284033333333     0.507233333333     0.514750000000   
Si     0.294200000000     0.444833333333     0.966150000000   
O      0.267666666667     0.742300000000     0.251950000000   
O      0.216533333333     0.736700000000     0.194050000000   
O      0.215366666667     0.673066666667     0.222200000000   
O      0.193333333333     0.711933333333     0.272900000000   
O      0.149933333333     0.718766666667     0.332750000000   
O      0.188166666667     0.785433333333     0.375000000000   
O      0.222233333333     0.777766666667     0.125000000000   
Si     0.223200000000     0.715966666667     0.235250000000   
Si     0.150633333333     0.705800000000     0.283850000000   
Si     0.175500000000     0.739633333333     0.375000000000   
Si     0.222233333333     0.777766666667     0.176650000000   
O      0.192033333333     0.934333333333     0.001950000000   
O      0.146500000000     0.883200000000     0.444050000000   
O      0.208966666667     0.882033333333     0.472200000000   
O      0.148066666667     0.860000000000     0.022900000000   
O      0.097833333333     0.816600000000     0.082750000000   
O      0.069400000000     0.854833333333     0.125000000000   
O      0.111133333333     0.888900000000     0.375000000000   
Si     0.173900000000     0.889866666667     0.485250000000   
Si     0.111500000000     0.817300000000     0.033850000000   
Si     0.102533333333     0.842166666667     0.125000000000   
Si     0.111133333333     0.888900000000     0.426650000000   
O      0.257700000000     0.858700000000     0.251950000000   
O      0.263300000000     0.813166666667     0.194050000000   
O      0.326933333333     0.875633333333     0.222200000000   
O      0.288066666667     0.814733333333     0.272900000000   
O      0.281233333333     0.764500000000     0.332750000000   
O      0.214566666667     0.736066666667     0.375000000000   
Si     0.284033333333     0.840566666667     0.235250000000   
Si     0.294200000000     0.778166666667     0.283850000000   
Si     0.260366666667     0.769200000000     0.375000000000   
O      0.065666666667     0.924366666667     0.001950000000   
O      0.116800000000     0.929966666667     0.444050000000   
O      0.117966666667     0.993600000000     0.472200000000   
O      0.140000000000     0.954733333333     0.022900000000   
O      0.183400000000     0.947900000000     0.082750000000   
O      0.145166666667     0.881233333333     0.125000000000   
Si     0.110133333333     0.950700000000     0.485250000000   
Si     0.182700000000     0.960866666667     0.033850000000   
Si     0.157833333333     0.927033333333     0.125000000000   
O      0.141300000000     0.732333333333     0.251950000000   
O      0.186833333333     0.783466666667     0.194050000000   
O      0.124366666667     0.784633333333     0.222200000000   
O      0.185266666667     0.806666666667     0.272900000000   
O      0.235500000000     0.850066666667     0.332750000000   
O      0.263933333333     0.811833333333     0.375000000000   
Si     0.159433333333     0.776800000000     0.235250000000   
Si     0.221833333333     0.849366666667     0.283850000000   
Si     0.230800000000     0.824500000000     0.375000000000   
O      0.075633333333     0.807966666667     0.001950000000   
O      0.070033333333     0.853500000000     0.444050000000   
O      0.006400000000     0.791033333333     0.472200000000   
O      0.045266666667     0.851933333333     0.022900000000   
O      0.052100000000     0.902166666667     0.082750000000   
O      0.118766666667     0.930600000000     0.125000000000   
Si     0.049300000000     0.826100000000     0.485250000000   
Si     0.039133333333     0.888500000000     0.033850000000   
Si     0.072966666667     0.897466666667     0.125000000000   
O      0.065666666667     0.924366666667     0.248050000000   
O      0.116800000000     0.929966666667     0.305950000000   
O      0.117966666667     0.993600000000     0.277800000000   
O      0.140000000000     0.954733333333     0.227100000000   
O      0.183400000000     0.947900000000     0.167250000000   
Si     0.110133333333     0.950700000000     0.264750000000   