%BLOCK LATTICE_CART
ang    # angstrom units
  13.027020000000    0.000000000000     0.000000000000   
 -2.799789266137     10.825981818330    0.000000000000   
 -2.741478147882    -1.099441720051     8.732937410390   
%ENDBLOCK LATTICE_CART

%BLOCK POSITIONS_FRAC
Si     0.089056666667     0.165596666667     0.076753333333   
Si     0.090913333333     0.183403333333     0.301780000000   
Si     0.107886666667     0.130533333333     0.225580000000   
Si     0.039073333333     0.142160000000     0.139673333333   
Si     0.135780000000     0.050150000000     0.246080000000   
Si     0.111466666667     0.291236666667     0.217643333333   
Si     0.042993333333     0.215660000000     0.210186666667   
Si     0.158696666667     0.129743333333     0.105323333333   
Si     0.157366666667     0.256026666667     0.307283333333   
Si     0.139503333333     0.250060000000     0.140656666667   
O      0.078406666667     0.166910000000     0.016100000000   
O      0.119383333333     0.140143333333     0.096180000000   
O      0.105596666667     0.212043333333     0.106280000000   
O      0.051603333333     0.143140000000     0.089183333333   
O      0.122836666667     0.226813333333     0.320873333333   
O      0.056263333333     0.191266666667     0.258180000000   
O      0.106820000000     0.149430000000     0.279423333333   
O      0.114696666667     0.085236666667     0.228923333333   
O      0.141066666667     0.161423333333     0.210993333333   
O      0.068153333333     0.125940000000     0.183233333333   
O      0.039883333333     0.188450000000     0.158916666667   
O      0.330846666667     0.112110000000     0.127273333333   
O      0.108713333333     0.005043333333     0.219403333333   
O      0.172673333333     0.058680000000     0.229003333333   
O      0.146290000000     0.051220000000     0.307106666667   
O      0.143123333333     0.287396666667     0.268646666667   
O      0.072200000000     0.260313333333     0.215940000000   
O      0.122770000000     0.280076666667     0.168366666667   
O      0.157766666667     0.106120000000     0.052886666667   
O      0.164863333333     0.100363333333     0.149926666667   
Si     0.244276666667     0.167736666667     0.256580000000   
Si     0.242420000000     0.149930000000     0.031553333333   
Si     0.225446666667     0.202800000000     0.107753333333   
Si     0.294260000000     0.191173333333     0.193660000000   
Si     0.197553333333     0.283183333333     0.087253333333   
Si     0.221866666667     0.042096666667     0.115690000000   
Si     0.290340000000     0.117673333333     0.123146666667   
Si     0.174636666667     0.203590000000     0.228010000000   
Si     0.175966666667     0.077306666667     0.026050000000   
Si     0.193830000000     0.083273333333     0.192676666667   
O      0.254926666667     0.166423333333     0.317233333333   
O      0.213950000000     0.193190000000     0.237153333333   
O      0.227736666667     0.121290000000     0.227053333333   
O      0.281730000000     0.190193333333     0.244150000000   
O      0.210496666667     0.106520000000     0.012460000000   
O      0.277070000000     0.142066666667     0.075153333333   
O      0.226513333333     0.183903333333     0.053910000000   
O      0.218636666667     0.248096666667     0.104410000000   
O      0.192266666667     0.171910000000     0.122340000000   
O      0.265180000000     0.207393333333     0.150100000000   
O      0.293450000000     0.144883333333     0.174416666667   
O      0.002486666667     0.221223333333     0.206060000000   
O      0.224620000000     0.328290000000     0.113930000000   
O      0.160660000000     0.274653333333     0.104330000000   
O      0.187043333333     0.282113333333     0.026226666667   
O      0.190210000000     0.045936666667     0.064686666667   
O      0.261133333333     0.073020000000     0.117393333333   
O      0.210563333333     0.053256666667     0.164966666667   
O      0.175566666667     0.227213333333     0.280446666667   
O      0.168470000000     0.232970000000     0.183406666667   
Si     0.089056666667     0.165596666667     0.410086666667   
Si     0.090913333333     0.183403333333     0.635113333333   
Si     0.107886666667     0.130533333333     0.558913333333   
Si     0.039073333333     0.142160000000     0.473006666667   
Si     0.135780000000     0.050150000000     0.579413333333   
Si     0.111466666667     0.291236666667     0.550976666667   
Si     0.042993333333     0.215660000000     0.543520000000   
Si     0.158696666667     0.129743333333     0.438656666667   
Si     0.157366666667     0.256026666667     0.640616666667   
Si     0.139503333333     0.250060000000     0.473990000000   
O      0.078406666667     0.166910000000     0.349433333333   
O      0.119383333333     0.140143333333     0.429513333333   
O      0.105596666667     0.212043333333     0.439613333333   
O      0.051603333333     0.143140000000     0.422516666667   
O      0.122836666667     0.226813333333     0.654206666667   
O      0.056263333333     0.191266666667     0.591513333333   
O      0.106820000000     0.149430000000     0.612756666667   
O      0.114696666667     0.085236666667     0.562256666667   
O      0.141066666667     0.161423333333     0.544326666667   
O      0.068153333333     0.125940000000     0.516566666667   
O      0.039883333333     0.188450000000     0.492250000000   
O      0.330846666667     0.112110000000     0.460606666667   
O      0.108713333333     0.005043333333     0.552736666667   
O      0.172673333333     0.058680000000     0.562336666667   
O      0.146290000000     0.051220000000     0.640440000000   
O      0.143123333333     0.287396666667     0.601980000000   
O      0.072200000000     0.260313333333     0.549273333333   
O      0.122770000000     0.280076666667     0.501700000000   
O      0.157766666667     0.106120000000     0.386220000000   
O      0.164863333333     0.100363333333     0.483260000000   
Si     0.244276666667     0.167736666667     0.589913333333   
Si     0.242420000000     0.149930000000     0.364886666667   
Si     0.225446666667     0.202800000000     0.441086666667   
Si     0.294260000000     0.191173333333     0.526993333333   
Si     0.197553333333     0.283183333333     0.420586666667   
Si     0.221866666667     0.042096666667     0.449023333333   
Si     0.290340000000     0.117673333333     0.456480000000   
Si     0.174636666667     0.203590000000     0.561343333333   
Si     0.175966666667     0.077306666667     0.359383333333   
Si     0.193830000000     0.083273333333     0.526010000000   
O      0.254926666667     0.166423333333     0.650566666667   
O      0.213950000000     0.193190000000     0.570486666667   
O      0.227736666667     0.121290000000     0.560386666667   
O      0.281730000000     0.190193333333     0.577483333333   
O      0.210496666667     0.106520000000     0.345793333333   
O      0.277070000000     0.142066666667     0.408486666667   
O      0.226513333333     0.183903333333     0.387243333333   
O      0.218636666667     0.248096666667     0.437743333333   
O      0.192266666667     0.171910000000     0.455673333333   
O      0.265180000000     0.207393333333     0.483433333333   
O      0.293450000000     0.144883333333     0.507750000000   
O      0.002486666667     0.221223333333     0.539393333333   
O      0.224620000000     0.328290000000     0.447263333333   
O      0.160660000000     0.274653333333     0.437663333333   
O      0.187043333333     0.282113333333     0.359560000000   
O      0.190210000000     0.045936666667     0.398020000000   
O      0.261133333333     0.073020000000     0.450726666667   
O      0.210563333333     0.053256666667     0.498300000000   
O      0.175566666667     0.227213333333     0.613780000000   
O      0.168470000000     0.232970000000     0.516740000000   
Si     0.089056666667     0.165596666667     0.743420000000   
Si     0.090913333333     0.183403333333     0.968446666667   
Si     0.107886666667     0.130533333333     0.892246666667   
Si     0.039073333333     0.142160000000     0.806340000000   
Si     0.135780000000     0.050150000000     0.912746666667   
Si     0.111466666667     0.291236666667     0.884310000000   
Si     0.042993333333     0.215660000000     0.876853333333   
Si     0.158696666667     0.129743333333     0.771990000000   
Si     0.157366666667     0.256026666667     0.973950000000   
Si     0.139503333333     0.250060000000     0.807323333333   
O      0.078406666667     0.166910000000     0.682766666667   
O      0.119383333333     0.140143333333     0.762846666667   
O      0.105596666667     0.212043333333     0.772946666667   
O      0.051603333333     0.143140000000     0.755850000000   
O      0.122836666667     0.226813333333     0.987540000000   
O      0.056263333333     0.191266666667     0.924846666667   
O      0.106820000000     0.149430000000     0.946090000000   
O      0.114696666667     0.085236666667     0.895590000000   
O      0.141066666667     0.161423333333     0.877660000000   
O      0.068153333333     0.125940000000     0.849900000000   
O      0.039883333333     0.188450000000     0.825583333333   
O      0.330846666667     0.112110000000     0.793940000000   
O      0.108713333333     0.005043333333     0.886070000000   
O      0.172673333333     0.058680000000     0.895670000000   
O      0.146290000000     0.051220000000     0.973773333333   
O      0.143123333333     0.287396666667     0.935313333333   
O      0.072200000000     0.260313333333     0.882606666667   
O      0.122770000000     0.280076666667     0.835033333333   
O      0.157766666667     0.106120000000     0.719553333333   
O      0.164863333333     0.100363333333     0.816593333333   
Si     0.244276666667     0.167736666667     0.923246666667   
Si     0.242420000000     0.149930000000     0.698220000000   
Si     0.225446666667     0.202800000000     0.774420000000   
Si     0.294260000000     0.191173333333     0.860326666667   
Si     0.197553333333     0.283183333333     0.753920000000   
Si     0.221866666667     0.042096666667     0.782356666667   
Si     0.290340000000     0.117673333333     0.789813333333   
Si     0.174636666667     0.203590000000     0.894676666667   
Si     0.175966666667     0.077306666667     0.692716666667   
Si     0.193830000000     0.083273333333     0.859343333333   
O      0.254926666667     0.166423333333     0.983900000000   
O      0.213950000000     0.193190000000     0.903820000000   
O      0.227736666667     0.121290000000     0.893720000000   
O      0.281730000000     0.190193333333     0.910816666667   
O      0.210496666667     0.106520000000     0.679126666667   
O      0.277070000000     0.142066666667     0.741820000000   
O      0.226513333333     0.183903333333     0.720576666667   
O      0.218636666667     0.248096666667     0.771076666667   
O      0.192266666667     0.171910000000     0.789006666667   
O      0.265180000000     0.207393333333     0.816766666667   
O      0.293450000000     0.144883333333     0.841083333333   
O      0.002486666667     0.221223333333     0.872726666667   
O      0.224620000000     0.328290000000     0.780596666667   
O      0.160660000000     0.274653333333     0.770996666667   
O      0.187043333333     0.282113333333     0.692893333333   
O      0.190210000000     0.045936666667     0.731353333333   
O      0.261133333333     0.073020000000     0.784060000000   
O      0.210563333333     0.053256666667     0.831633333333   
O      0.175566666667     0.227213333333     0.947113333333   
O      0.168470000000     0.232970000000     0.850073333333   
Si     0.089056666667     0.498930000000     0.076753333333   
Si     0.090913333333     0.516736666667     0.301780000000   
Si     0.107886666667     0.463866666667     0.225580000000   
Si     0.039073333333     0.475493333333     0.139673333333   
Si     0.135780000000     0.383483333333     0.246080000000   
Si     0.111466666667     0.624570000000     0.217643333333   
Si     0.042993333333     0.548993333333     0.210186666667   
Si     0.158696666667     0.463076666667     0.105323333333   
Si     0.157366666667     0.589360000000     0.307283333333   
Si     0.139503333333     0.583393333333     0.140656666667   
O      0.078406666667     0.500243333333     0.016100000000   
O      0.119383333333     0.473476666667     0.096180000000   
O      0.105596666667     0.545376666667     0.106280000000   
O      0.051603333333     0.476473333333     0.089183333333   
O      0.122836666667     0.560146666667     0.320873333333   
O      0.056263333333     0.524600000000     0.258180000000   
O      0.106820000000     0.482763333333     0.279423333333   
O      0.114696666667     0.418570000000     0.228923333333   
O      0.141066666667     0.494756666667     0.210993333333   
O      0.068153333333     0.459273333333     0.183233333333   
O      0.039883333333     0.521783333333     0.158916666667   
O      0.330846666667     0.445443333333     0.127273333333   
O      0.108713333333     0.338376666667     0.219403333333   
O      0.172673333333     0.392013333333     0.229003333333   
O      0.146290000000     0.384553333333     0.307106666667   
O      0.143123333333     0.620730000000     0.268646666667   
O      0.072200000000     0.593646666667     0.215940000000   
O      0.122770000000     0.613410000000     0.168366666667   
O      0.157766666667     0.439453333333     0.052886666667   
O      0.164863333333     0.433696666667     0.149926666667   
Si     0.244276666667     0.501070000000     0.256580000000   
Si     0.242420000000     0.483263333333     0.031553333333   
Si     0.225446666667     0.536133333333     0.107753333333   
Si     0.294260000000     0.524506666667     0.193660000000   
Si     0.197553333333     0.616516666667     0.087253333333   
Si     0.221866666667     0.375430000000     0.115690000000   
Si     0.290340000000     0.451006666667     0.123146666667   
Si     0.174636666667     0.536923333333     0.228010000000   
Si     0.175966666667     0.410640000000     0.026050000000   
Si     0.193830000000     0.416606666667     0.192676666667   
O      0.254926666667     0.499756666667     0.317233333333   
O      0.213950000000     0.526523333333     0.237153333333   
O      0.227736666667     0.454623333333     0.227053333333   
O      0.281730000000     0.523526666667     0.244150000000   
O      0.210496666667     0.439853333333     0.012460000000   
O      0.277070000000     0.475400000000     0.075153333333   
O      0.226513333333     0.517236666667     0.053910000000   
O      0.218636666667     0.581430000000     0.104410000000   
O      0.192266666667     0.505243333333     0.122340000000   
O      0.265180000000     0.540726666667     0.150100000000   
O      0.293450000000     0.478216666667     0.174416666667   
O      0.002486666667     0.554556666667     0.206060000000   
O      0.224620000000     0.661623333333     0.113930000000   
O      0.160660000000     0.607986666667     0.104330000000   
O      0.187043333333     0.615446666667     0.026226666667   
O      0.190210000000     0.379270000000     0.064686666667   
O      0.261133333333     0.406353333333     0.117393333333   
O      0.210563333333     0.386590000000     0.164966666667   
O      0.175566666667     0.560546666667     0.280446666667   
O      0.168470000000     0.566303333333     0.183406666667   
Si     0.089056666667     0.498930000000     0.410086666667   
Si     0.090913333333     0.516736666667     0.635113333333   
Si     0.107886666667     0.463866666667     0.558913333333   
Si     0.039073333333     0.475493333333     0.473006666667   
Si     0.135780000000     0.383483333333     0.579413333333   
Si     0.111466666667     0.624570000000     0.550976666667   
Si     0.042993333333     0.548993333333     0.543520000000   
Si     0.158696666667     0.463076666667     0.438656666667   
Si     0.157366666667     0.589360000000     0.640616666667   
Si     0.139503333333     0.583393333333     0.473990000000   
O      0.078406666667     0.500243333333     0.349433333333   
O      0.119383333333     0.473476666667     0.429513333333   
O      0.105596666667     0.545376666667     0.439613333333   
O      0.051603333333     0.476473333333     0.422516666667   
O      0.122836666667     0.560146666667     0.654206666667   
O      0.056263333333     0.524600000000     0.591513333333   
O      0.106820000000     0.482763333333     0.612756666667   
O      0.114696666667     0.418570000000     0.562256666667   
O      0.141066666667     0.494756666667     0.544326666667   
O      0.068153333333     0.459273333333     0.516566666667   
O      0.039883333333     0.521783333333     0.492250000000   
O      0.330846666667     0.445443333333     0.460606666667   
O      0.108713333333     0.338376666667     0.552736666667   
O      0.172673333333     0.392013333333     0.562336666667   
O      0.146290000000     0.384553333333     0.640440000000   
O      0.143123333333     0.620730000000     0.601980000000   
O      0.072200000000     0.593646666667     0.549273333333   
O      0.122770000000     0.613410000000     0.501700000000   
O      0.157766666667     0.439453333333     0.386220000000   
O      0.164863333333     0.433696666667     0.483260000000   
Si     0.244276666667     0.501070000000     0.589913333333   
Si     0.242420000000     0.483263333333     0.364886666667   
Si     0.225446666667     0.536133333333     0.441086666667   
Si     0.294260000000     0.524506666667     0.526993333333   
Si     0.197553333333     0.616516666667     0.420586666667   
Si     0.221866666667     0.375430000000     0.449023333333   
Si     0.290340000000     0.451006666667     0.456480000000   
Si     0.174636666667     0.536923333333     0.561343333333   
Si     0.175966666667     0.410640000000     0.359383333333   
Si     0.193830000000     0.416606666667     0.526010000000   
O      0.254926666667     0.499756666667     0.650566666667   
O      0.213950000000     0.526523333333     0.570486666667   
O      0.227736666667     0.454623333333     0.560386666667   
O      0.281730000000     0.523526666667     0.577483333333   
O      0.210496666667     0.439853333333     0.345793333333   
O      0.277070000000     0.475400000000     0.408486666667   
O      0.226513333333     0.517236666667     0.387243333333   
O      0.218636666667     0.581430000000     0.437743333333   
O      0.192266666667     0.505243333333     0.455673333333   
O      0.265180000000     0.540726666667     0.483433333333   
O      0.293450000000     0.478216666667     0.507750000000   
O      0.002486666667     0.554556666667     0.539393333333   
O      0.224620000000     0.661623333333     0.447263333333   
O      0.160660000000     0.607986666667     0.437663333333   
O      0.187043333333     0.615446666667     0.359560000000   
O      0.190210000000     0.379270000000     0.398020000000   
O      0.261133333333     0.406353333333     0.450726666667   
O      0.210563333333     0.386590000000     0.498300000000   
O      0.175566666667     0.560546666667     0.613780000000   
O      0.168470000000     0.566303333333     0.516740000000   
Si     0.089056666667     0.498930000000     0.743420000000   
Si     0.090913333333     0.516736666667     0.968446666667   
Si     0.107886666667     0.463866666667     0.892246666667   
Si     0.039073333333     0.475493333333     0.806340000000   
Si     0.135780000000     0.383483333333     0.912746666667   
Si     0.111466666667     0.624570000000     0.884310000000   
Si     0.042993333333     0.548993333333     0.876853333333   
Si     0.158696666667     0.463076666667     0.771990000000   
Si     0.157366666667     0.589360000000     0.973950000000   
Si     0.139503333333     0.583393333333     0.807323333333   
O      0.078406666667     0.500243333333     0.682766666667   
O      0.119383333333     0.473476666667     0.762846666667   
O      0.105596666667     0.545376666667     0.772946666667   
O      0.051603333333     0.476473333333     0.755850000000   
O      0.122836666667     0.560146666667     0.987540000000   
O      0.056263333333     0.524600000000     0.924846666667   
O      0.106820000000     0.482763333333     0.946090000000   
O      0.114696666667     0.418570000000     0.895590000000   
O      0.141066666667     0.494756666667     0.877660000000   
O      0.068153333333     0.459273333333     0.849900000000   
O      0.039883333333     0.521783333333     0.825583333333   
O      0.330846666667     0.445443333333     0.793940000000   
O      0.108713333333     0.338376666667     0.886070000000   
O      0.172673333333     0.392013333333     0.895670000000   
O      0.146290000000     0.384553333333     0.973773333333   
O      0.143123333333     0.620730000000     0.935313333333   
O      0.072200000000     0.593646666667     0.882606666667   
O      0.122770000000     0.613410000000     0.835033333333   
O      0.157766666667     0.439453333333     0.719553333333   
O      0.164863333333     0.433696666667     0.816593333333   
Si     0.244276666667     0.501070000000     0.923246666667   
Si     0.242420000000     0.483263333333     0.698220000000   
Si     0.225446666667     0.536133333333     0.774420000000   
Si     0.294260000000     0.524506666667     0.860326666667   
Si     0.197553333333     0.616516666667     0.753920000000   
Si     0.221866666667     0.375430000000     0.782356666667   
Si     0.290340000000     0.451006666667     0.789813333333   
Si     0.174636666667     0.536923333333     0.894676666667   
Si     0.175966666667     0.410640000000     0.692716666667   
Si     0.193830000000     0.416606666667     0.859343333333   
O      0.254926666667     0.499756666667     0.983900000000   
O      0.213950000000     0.526523333333     0.903820000000   
O      0.227736666667     0.454623333333     0.893720000000   
O      0.281730000000     0.523526666667     0.910816666667   
O      0.210496666667     0.439853333333     0.679126666667   
O      0.277070000000     0.475400000000     0.741820000000   
O      0.226513333333     0.517236666667     0.720576666667   
O      0.218636666667     0.581430000000     0.771076666667   
O      0.192266666667     0.505243333333     0.789006666667   
O      0.265180000000     0.540726666667     0.816766666667   
O      0.293450000000     0.478216666667     0.841083333333   
O      0.002486666667     0.554556666667     0.872726666667   
O      0.224620000000     0.661623333333     0.780596666667   
O      0.160660000000     0.607986666667     0.770996666667   
O      0.187043333333     0.615446666667     0.692893333333   
O      0.190210000000     0.379270000000     0.731353333333   
O      0.261133333333     0.406353333333     0.784060000000   
O      0.210563333333     0.386590000000     0.831633333333   
O      0.175566666667     0.560546666667     0.947113333333   
O      0.168470000000     0.566303333333     0.850073333333   
Si     0.089056666667     0.832263333333     0.076753333333   
Si     0.090913333333     0.850070000000     0.301780000000   
Si     0.107886666667     0.797200000000     0.225580000000   
Si     0.039073333333     0.808826666667     0.139673333333   
Si     0.135780000000     0.716816666667     0.246080000000   
Si     0.111466666667     0.957903333333     0.217643333333   
Si     0.042993333333     0.882326666667     0.210186666667   
Si     0.158696666667     0.796410000000     0.105323333333   
Si     0.157366666667     0.922693333333     0.307283333333   
Si     0.139503333333     0.916726666667     0.140656666667   
O      0.078406666667     0.833576666667     0.016100000000   
O      0.119383333333     0.806810000000     0.096180000000   
O      0.105596666667     0.878710000000     0.106280000000   
O      0.051603333333     0.809806666667     0.089183333333   
O      0.122836666667     0.893480000000     0.320873333333   
O      0.056263333333     0.857933333333     0.258180000000   
O      0.106820000000     0.816096666667     0.279423333333   
O      0.114696666667     0.751903333333     0.228923333333   
O      0.141066666667     0.828090000000     0.210993333333   
O      0.068153333333     0.792606666667     0.183233333333   
O      0.039883333333     0.855116666667     0.158916666667   
O      0.330846666667     0.778776666667     0.127273333333   
O      0.108713333333     0.671710000000     0.219403333333   
O      0.172673333333     0.725346666667     0.229003333333   
O      0.146290000000     0.717886666667     0.307106666667   
O      0.143123333333     0.954063333333     0.268646666667   
O      0.072200000000     0.926980000000     0.215940000000   
O      0.122770000000     0.946743333333     0.168366666667   
O      0.157766666667     0.772786666667     0.052886666667   
O      0.164863333333     0.767030000000     0.149926666667   
Si     0.244276666667     0.834403333333     0.256580000000   
Si     0.242420000000     0.816596666667     0.031553333333   
Si     0.225446666667     0.869466666667     0.107753333333   
Si     0.294260000000     0.857840000000     0.193660000000   
Si     0.197553333333     0.949850000000     0.087253333333   
Si     0.221866666667     0.708763333333     0.115690000000   
Si     0.290340000000     0.784340000000     0.123146666667   
Si     0.174636666667     0.870256666667     0.228010000000   
Si     0.175966666667     0.743973333333     0.026050000000   
Si     0.193830000000     0.749940000000     0.192676666667   
O      0.254926666667     0.833090000000     0.317233333333   
O      0.213950000000     0.859856666667     0.237153333333   
O      0.227736666667     0.787956666667     0.227053333333   
O      0.281730000000     0.856860000000     0.244150000000   
O      0.210496666667     0.773186666667     0.012460000000   
O      0.277070000000     0.808733333333     0.075153333333   
O      0.226513333333     0.850570000000     0.053910000000   
O      0.218636666667     0.914763333333     0.104410000000   
O      0.192266666667     0.838576666667     0.122340000000   
O      0.265180000000     0.874060000000     0.150100000000   
O      0.293450000000     0.811550000000     0.174416666667   
O      0.002486666667     0.887890000000     0.206060000000   
O      0.224620000000     0.994956666667     0.113930000000   
O      0.160660000000     0.941320000000     0.104330000000   
O      0.187043333333     0.948780000000     0.026226666667   
O      0.190210000000     0.712603333333     0.064686666667   
O      0.261133333333     0.739686666667     0.117393333333   
O      0.210563333333     0.719923333333     0.164966666667   
O      0.175566666667     0.893880000000     0.280446666667   
O      0.168470000000     0.899636666667     0.183406666667   
Si     0.089056666667     0.832263333333     0.410086666667   
Si     0.090913333333     0.850070000000     0.635113333333   
Si     0.107886666667     0.797200000000     0.558913333333   
Si     0.039073333333     0.808826666667     0.473006666667   
Si     0.135780000000     0.716816666667     0.579413333333   
Si     0.111466666667     0.957903333333     0.550976666667   
Si     0.042993333333     0.882326666667     0.543520000000   
Si     0.158696666667     0.796410000000     0.438656666667   
Si     0.157366666667     0.922693333333     0.640616666667   
Si     0.139503333333     0.916726666667     0.473990000000   
O      0.078406666667     0.833576666667     0.349433333333   
O      0.119383333333     0.806810000000     0.429513333333   
O      0.105596666667     0.878710000000     0.439613333333   
O      0.051603333333     0.809806666667     0.422516666667   
O      0.122836666667     0.893480000000     0.654206666667   
O      0.056263333333     0.857933333333     0.591513333333   
O      0.106820000000     0.816096666667     0.612756666667   
O      0.114696666667     0.751903333333     0.562256666667   
O      0.141066666667     0.828090000000     0.544326666667   
O      0.068153333333     0.792606666667     0.516566666667   
O      0.039883333333     0.855116666667     0.492250000000   
O      0.330846666667     0.778776666667     0.460606666667   
O      0.108713333333     0.671710000000     0.552736666667   
O      0.172673333333     0.725346666667     0.562336666667   
O      0.146290000000     0.717886666667     0.640440000000   
O      0.143123333333     0.954063333333     0.601980000000   
O      0.072200000000     0.926980000000     0.549273333333   
O      0.122770000000     0.946743333333     0.501700000000   
O      0.157766666667     0.772786666667     0.386220000000   
O      0.164863333333     0.767030000000     0.483260000000   
Si     0.244276666667     0.834403333333     0.589913333333   
Si     0.242420000000     0.816596666667     0.364886666667   
Si     0.225446666667     0.869466666667     0.441086666667   
Si     0.294260000000     0.857840000000     0.526993333333   
Si     0.197553333333     0.949850000000     0.420586666667   
Si     0.221866666667     0.708763333333     0.449023333333   
Si     0.290340000000     0.784340000000     0.456480000000   
Si     0.174636666667     0.870256666667     0.561343333333   
Si     0.175966666667     0.743973333333     0.359383333333   
Si     0.193830000000     0.749940000000     0.526010000000   
O      0.254926666667     0.833090000000     0.650566666667   
O      0.213950000000     0.859856666667     0.570486666667   
O      0.227736666667     0.787956666667     0.560386666667   
O      0.281730000000     0.856860000000     0.577483333333   
O      0.210496666667     0.773186666667     0.345793333333   
O      0.277070000000     0.808733333333     0.408486666667   
O      0.226513333333     0.850570000000     0.387243333333   
O      0.218636666667     0.914763333333     0.437743333333   
O      0.192266666667     0.838576666667     0.455673333333   
O      0.265180000000     0.874060000000     0.483433333333   
O      0.293450000000     0.811550000000     0.507750000000   
O      0.002486666667     0.887890000000     0.539393333333   