%BLOCK LATTICE_CART
ang    # angstrom units
  12.601002500000    0.000000000000     0.000000000000   
 -6.300500850000     10.912787585331    0.000000000000   
 -0.000004366831    -0.000002521191     35.743001200000  
%ENDBLOCK LATTICE_CART

%BLOCK POSITIONS_FRAC
O      0.181366666667     0.029433333333     0.454200000000   
O      0.236766666667     0.012566666667     0.429700000000   
O      0.258233333333     0.075100000000     0.474400000000   
O      0.215000000000     0.000000000000     0.500000000000   
O      0.078600000000     0.039300000000     0.378300000000   
O      0.037033333333     0.296300000000     0.400800000000   
O      0.103666666667     0.321333333333     0.360200000000   
O      0.176533333333     0.254933333333     0.319800000000   
O      0.223666666667     0.325333333333     0.286800000000   
O      0.156166666667     0.312300000000     0.319200000000   
O      0.032933333333     0.300400000000     0.250000000000   
O      0.090033333333     0.045000000000     0.250000000000   
Si     0.222700000000     0.029333333333     0.464700000000   
Si     0.082000000000     0.000566666667     0.392200000000   
Si     0.193433333333     0.303366666667     0.321600000000   
Si     0.081333333333     0.332166666667     0.250000000000   
O      0.151933333333     0.181366666667     0.954200000000   
O      0.224200000000     0.236766666667     0.929700000000   
O      0.183133333333     0.258233333333     0.974400000000   
O      0.215000000000     0.215000000000     0.000000000000   
O      0.039300000000     0.078600000000     0.878300000000   
O      0.074066666667     0.037033333333     0.900800000000   
O      0.115666666667     0.103666666667     0.860200000000   
O      0.254933333333     0.176533333333     0.819800000000   
O      0.231666666667     0.223666666667     0.786800000000   
O      0.177200000000     0.156166666667     0.819200000000   
O      0.065866666667     0.032933333333     0.750000000000   
O      0.045033333333     0.090033333333     0.750000000000   
Si     0.193366666667     0.222700000000     0.964700000000   
Si     0.081433333333     0.082000000000     0.892200000000   
Si     0.223400000000     0.193433333333     0.821600000000   
Si     0.082500000000     0.081333333333     0.750000000000   
O      0.303900000000     0.151933333333     0.454200000000   
O      0.320766666667     0.224200000000     0.429700000000   
O      0.258233333333     0.183133333333     0.474400000000   
O      0.000000000000     0.215000000000     0.500000000000   
O      0.294033333333     0.039300000000     0.378300000000   
O      0.037033333333     0.074066666667     0.400800000000   
O      0.012000000000     0.115666666667     0.360200000000   
O      0.078400000000     0.254933333333     0.319800000000   
O      0.008000000000     0.231666666667     0.286800000000   
O      0.021033333333     0.177200000000     0.319200000000   
O      0.032933333333     0.065866666667     0.250000000000   
O      0.288333333333     0.045033333333     0.250000000000   
Si     0.304000000000     0.193366666667     0.464700000000   
Si     0.332766666667     0.081433333333     0.392200000000   
Si     0.029966666667     0.223400000000     0.321600000000   
Si     0.001166666667     0.082500000000     0.250000000000   
O      0.151966666667     0.303900000000     0.954200000000   
O      0.096566666667     0.320766666667     0.929700000000   
O      0.075100000000     0.258233333333     0.974400000000   
O      0.118333333333     0.000000000000     0.000000000000   
O      0.254733333333     0.294033333333     0.878300000000   
O      0.296300000000     0.037033333333     0.900800000000   
O      0.229666666667     0.012000000000     0.860200000000   
O      0.156800000000     0.078400000000     0.819800000000   
O      0.109666666667     0.008000000000     0.786800000000   
O      0.177166666667     0.021033333333     0.819200000000   
O      0.300400000000     0.032933333333     0.750000000000   
O      0.243300000000     0.288333333333     0.750000000000   
Si     0.110633333333     0.304000000000     0.964700000000   
Si     0.251333333333     0.332766666667     0.892200000000   
Si     0.139900000000     0.029966666667     0.821600000000   
Si     0.252000000000     0.001166666667     0.750000000000   
O      0.181400000000     0.151966666667     0.454200000000   
O      0.109133333333     0.096566666667     0.429700000000   
O      0.150200000000     0.075100000000     0.474400000000   
O      0.118333333333     0.118333333333     0.500000000000   
O      0.294033333333     0.254733333333     0.378300000000   
O      0.259266666667     0.296300000000     0.400800000000   
O      0.217666666667     0.229666666667     0.360200000000   
O      0.078400000000     0.156800000000     0.319800000000   
O      0.101666666667     0.109666666667     0.286800000000   
O      0.156133333333     0.177166666667     0.319200000000   
O      0.267466666667     0.300400000000     0.250000000000   
O      0.288300000000     0.243300000000     0.250000000000   
Si     0.139966666667     0.110633333333     0.464700000000   
Si     0.251900000000     0.251333333333     0.392200000000   
Si     0.109933333333     0.139900000000     0.321600000000   
Si     0.250833333333     0.252000000000     0.250000000000   
O      0.029433333333     0.181400000000     0.954200000000   
O      0.012566666667     0.109133333333     0.929700000000   
O      0.075100000000     0.150200000000     0.974400000000   
O      0.000000000000     0.118333333333     0.000000000000   
O      0.039300000000     0.294033333333     0.878300000000   
O      0.296300000000     0.259266666667     0.900800000000   
O      0.321333333333     0.217666666667     0.860200000000   
O      0.254933333333     0.078400000000     0.819800000000   
O      0.325333333333     0.101666666667     0.786800000000   
O      0.312300000000     0.156133333333     0.819200000000   
O      0.300400000000     0.267466666667     0.750000000000   
O      0.045000000000     0.288300000000     0.750000000000   
Si     0.029333333333     0.139966666667     0.964700000000   
Si     0.000566666667     0.251900000000     0.892200000000   
Si     0.303366666667     0.109933333333     0.821600000000   
Si     0.332166666667     0.250833333333     0.750000000000   
O      0.303900000000     0.151966666667     0.045800000000   
O      0.320766666667     0.096566666667     0.070300000000   
O      0.258233333333     0.075100000000     0.025600000000   
O      0.294033333333     0.254733333333     0.121700000000   
O      0.037033333333     0.296300000000     0.099200000000   
O      0.012000000000     0.229666666667     0.139800000000   
O      0.078400000000     0.156800000000     0.180200000000   
O      0.008000000000     0.109666666667     0.213200000000   
O      0.021033333333     0.177166666667     0.180800000000   
Si     0.304000000000     0.110633333333     0.035300000000   
Si     0.332766666667     0.251333333333     0.107800000000   
Si     0.029966666667     0.139900000000     0.178400000000   
Si     0.001166666667     0.252000000000     0.250000000000   
O      0.151933333333     0.303900000000     0.545800000000   
O      0.224200000000     0.320766666667     0.570300000000   
O      0.183133333333     0.258233333333     0.525600000000   
O      0.039300000000     0.294033333333     0.621700000000   
O      0.074066666667     0.037033333333     0.599200000000   
O      0.115666666667     0.012000000000     0.639800000000   
O      0.254933333333     0.078400000000     0.680200000000   
O      0.231666666667     0.008000000000     0.713200000000   
O      0.177200000000     0.021033333333     0.680800000000   
Si     0.193366666667     0.304000000000     0.535300000000   
Si     0.081433333333     0.332766666667     0.607800000000   
Si     0.223400000000     0.029966666667     0.678400000000   
Si     0.082500000000     0.001166666667     0.750000000000   
O      0.181366666667     0.151933333333     0.045800000000   
O      0.236766666667     0.224200000000     0.070300000000   
O      0.258233333333     0.183133333333     0.025600000000   
O      0.078600000000     0.039300000000     0.121700000000   
O      0.037033333333     0.074066666667     0.099200000000   
O      0.103666666667     0.115666666667     0.139800000000   
O      0.176533333333     0.254933333333     0.180200000000   
O      0.223666666667     0.231666666667     0.213200000000   
O      0.156166666667     0.177200000000     0.180800000000   
Si     0.222700000000     0.193366666667     0.035300000000   
Si     0.082000000000     0.081433333333     0.107800000000   
Si     0.193433333333     0.223400000000     0.178400000000   
Si     0.081333333333     0.082500000000     0.250000000000   
O      0.029433333333     0.181366666667     0.545800000000   
O      0.012566666667     0.236766666667     0.570300000000   
O      0.075100000000     0.258233333333     0.525600000000   
O      0.039300000000     0.078600000000     0.621700000000   
O      0.296300000000     0.037033333333     0.599200000000   
O      0.321333333333     0.103666666667     0.639800000000   
O      0.254933333333     0.176533333333     0.680200000000   
O      0.325333333333     0.223666666667     0.713200000000   
O      0.312300000000     0.156166666667     0.680800000000   
Si     0.029333333333     0.222700000000     0.535300000000   
Si     0.000566666667     0.082000000000     0.607800000000   
Si     0.303366666667     0.193433333333     0.678400000000   
Si     0.332166666667     0.081333333333     0.750000000000   
O      0.181400000000     0.029433333333     0.045800000000   
O      0.109133333333     0.012566666667     0.070300000000   
O      0.150200000000     0.075100000000     0.025600000000   
O      0.294033333333     0.039300000000     0.121700000000   
O      0.259266666667     0.296300000000     0.099200000000   
O      0.217666666667     0.321333333333     0.139800000000   
O      0.078400000000     0.254933333333     0.180200000000   
O      0.101666666667     0.325333333333     0.213200000000   
O      0.156133333333     0.312300000000     0.180800000000   
Si     0.139966666667     0.029333333333     0.035300000000   
Si     0.251900000000     0.000566666667     0.107800000000   
Si     0.109933333333     0.303366666667     0.178400000000   
Si     0.250833333333     0.332166666667     0.250000000000   
O      0.151966666667     0.181400000000     0.545800000000   
O      0.096566666667     0.109133333333     0.570300000000   
O      0.075100000000     0.150200000000     0.525600000000   
O      0.254733333333     0.294033333333     0.621700000000   
O      0.296300000000     0.259266666667     0.599200000000   
O      0.229666666667     0.217666666667     0.639800000000   
O      0.156800000000     0.078400000000     0.680200000000   
O      0.109666666667     0.101666666667     0.713200000000   
O      0.177166666667     0.156133333333     0.680800000000   
Si     0.110633333333     0.139966666667     0.535300000000   
Si     0.251333333333     0.251900000000     0.607800000000   
Si     0.139900000000     0.109933333333     0.678400000000   
Si     0.252000000000     0.250833333333     0.750000000000   
O      0.096566666667     0.320766666667     0.570300000000   
O      0.118333333333     0.000000000000     0.500000000000   
O      0.229666666667     0.012000000000     0.639800000000   
O      0.109666666667     0.008000000000     0.713200000000   
Si     0.110633333333     0.304000000000     0.535300000000   
Si     0.251333333333     0.332766666667     0.607800000000   
Si     0.139900000000     0.029966666667     0.678400000000   
O      0.109133333333     0.096566666667     0.070300000000   
O      0.118333333333     0.118333333333     0.000000000000   
O      0.217666666667     0.229666666667     0.139800000000   
O      0.101666666667     0.109666666667     0.213200000000   
Si     0.139966666667     0.110633333333     0.035300000000   
Si     0.251900000000     0.251333333333     0.107800000000   
Si     0.109933333333     0.139900000000     0.178400000000   
O      0.012566666667     0.109133333333     0.570300000000   
O      0.000000000000     0.118333333333     0.500000000000   
O      0.321333333333     0.217666666667     0.639800000000   
O      0.325333333333     0.101666666667     0.713200000000   
Si     0.029333333333     0.139966666667     0.535300000000   
Si     0.000566666667     0.251900000000     0.607800000000   
Si     0.303366666667     0.109933333333     0.678400000000   
O      0.236766666667     0.012566666667     0.070300000000   
O      0.215000000000     0.000000000000     0.000000000000   
O      0.103666666667     0.321333333333     0.139800000000   
O      0.223666666667     0.325333333333     0.213200000000   
Si     0.222700000000     0.029333333333     0.035300000000   
Si     0.082000000000     0.000566666667     0.107800000000   
Si     0.193433333333     0.303366666667     0.178400000000   
O      0.224200000000     0.236766666667     0.570300000000   
O      0.215000000000     0.215000000000     0.500000000000   
O      0.115666666667     0.103666666667     0.639800000000   
O      0.231666666667     0.223666666667     0.713200000000   
Si     0.193366666667     0.222700000000     0.535300000000   
Si     0.081433333333     0.082000000000     0.607800000000   
Si     0.223400000000     0.193433333333     0.678400000000   
O      0.320766666667     0.224200000000     0.070300000000   
O      0.000000000000     0.215000000000     0.000000000000   
O      0.012000000000     0.115666666667     0.139800000000   
O      0.008000000000     0.231666666667     0.213200000000   
Si     0.304000000000     0.193366666667     0.035300000000   
Si     0.332766666667     0.081433333333     0.107800000000   
Si     0.029966666667     0.223400000000     0.178400000000   
O      0.012566666667     0.236766666667     0.929700000000   
O      0.321333333333     0.103666666667     0.860200000000   
O      0.325333333333     0.223666666667     0.786800000000   
Si     0.029333333333     0.222700000000     0.964700000000   
Si     0.000566666667     0.082000000000     0.892200000000   
Si     0.303366666667     0.193433333333     0.821600000000   
O      0.109133333333     0.012566666667     0.429700000000   
O      0.217666666667     0.321333333333     0.360200000000   
O      0.101666666667     0.325333333333     0.286800000000   
Si     0.139966666667     0.029333333333     0.464700000000   
Si     0.251900000000     0.000566666667     0.392200000000   
Si     0.109933333333     0.303366666667     0.321600000000   
O      0.096566666667     0.109133333333     0.929700000000   
O      0.229666666667     0.217666666667     0.860200000000   
O      0.109666666667     0.101666666667     0.786800000000   
Si     0.110633333333     0.139966666667     0.964700000000   
Si     0.251333333333     0.251900000000     0.892200000000   
Si     0.139900000000     0.109933333333     0.821600000000   
O      0.320766666667     0.096566666667     0.429700000000   
O      0.012000000000     0.229666666667     0.360200000000   
O      0.008000000000     0.109666666667     0.286800000000   
Si     0.304000000000     0.110633333333     0.464700000000   
Si     0.332766666667     0.251333333333     0.392200000000   
Si     0.029966666667     0.139900000000     0.321600000000   
O      0.224200000000     0.320766666667     0.929700000000   
O      0.115666666667     0.012000000000     0.860200000000   
O      0.231666666667     0.008000000000     0.786800000000   
Si     0.193366666667     0.304000000000     0.964700000000   
Si     0.081433333333     0.332766666667     0.892200000000   
Si     0.223400000000     0.029966666667     0.821600000000   
O      0.236766666667     0.224200000000     0.429700000000   
O      0.103666666667     0.115666666667     0.360200000000   
O      0.223666666667     0.231666666667     0.286800000000   
Si     0.222700000000     0.193366666667     0.464700000000   
Si     0.082000000000     0.081433333333     0.392200000000   
Si     0.193433333333     0.223400000000     0.321600000000   
O      0.181366666667     0.362766666667     0.454200000000   
O      0.236766666667     0.345900000000     0.429700000000   
O      0.258233333333     0.408433333333     0.474400000000   
O      0.215000000000     0.333333333333     0.500000000000   
O      0.078600000000     0.372633333333     0.378300000000   
O      0.037033333333     0.629633333333     0.400800000000   
O      0.103666666667     0.654666666667     0.360200000000   
O      0.176533333333     0.588266666667     0.319800000000   
O      0.223666666667     0.658666666667     0.286800000000   
O      0.156166666667     0.645633333333     0.319200000000   
O      0.032933333333     0.633733333333     0.250000000000   
O      0.090033333333     0.378333333333     0.250000000000   
Si     0.222700000000     0.362666666667     0.464700000000   
Si     0.082000000000     0.333900000000     0.392200000000   
Si     0.193433333333     0.636700000000     0.321600000000   
Si     0.081333333333     0.665500000000     0.250000000000   
O      0.151933333333     0.514700000000     0.954200000000   
O      0.224200000000     0.570100000000     0.929700000000   
O      0.183133333333     0.591566666667     0.974400000000   
O      0.215000000000     0.548333333333     0.000000000000   
O      0.039300000000     0.411933333333     0.878300000000   
O      0.074066666667     0.370366666667     0.900800000000   
O      0.115666666667     0.437000000000     0.860200000000   
O      0.254933333333     0.509866666667     0.819800000000   
O      0.231666666667     0.557000000000     0.786800000000   
O      0.177200000000     0.489500000000     0.819200000000   
O      0.065866666667     0.366266666667     0.750000000000   
O      0.045033333333     0.423366666667     0.750000000000   
Si     0.193366666667     0.556033333333     0.964700000000   
Si     0.081433333333     0.415333333333     0.892200000000   
Si     0.223400000000     0.526766666667     0.821600000000   
Si     0.082500000000     0.414666666667     0.750000000000   
O      0.303900000000     0.485266666667     0.454200000000   
O      0.320766666667     0.557533333333     0.429700000000   
O      0.258233333333     0.516466666667     0.474400000000   
O      0.000000000000     0.548333333333     0.500000000000   
O      0.294033333333     0.372633333333     0.378300000000   
O      0.037033333333     0.407400000000     0.400800000000   
O      0.012000000000     0.449000000000     0.360200000000   
O      0.078400000000     0.588266666667     0.319800000000   
O      0.008000000000     0.565000000000     0.286800000000   
O      0.021033333333     0.510533333333     0.319200000000   
O      0.032933333333     0.399200000000     0.250000000000   
O      0.288333333333     0.378366666667     0.250000000000   
Si     0.304000000000     0.526700000000     0.464700000000   
Si     0.332766666667     0.414766666667     0.392200000000   
Si     0.029966666667     0.556733333333     0.321600000000   
Si     0.001166666667     0.415833333333     0.250000000000   
O      0.151966666667     0.637233333333     0.954200000000   
O      0.096566666667     0.654100000000     0.929700000000   
O      0.075100000000     0.591566666667     0.974400000000   
O      0.118333333333     0.333333333333     0.000000000000   
O      0.254733333333     0.627366666667     0.878300000000   
O      0.296300000000     0.370366666667     0.900800000000   
O      0.229666666667     0.345333333333     0.860200000000   
O      0.156800000000     0.411733333333     0.819800000000   
O      0.109666666667     0.341333333333     0.786800000000   
O      0.177166666667     0.354366666667     0.819200000000   
O      0.300400000000     0.366266666667     0.750000000000   
O      0.243300000000     0.621666666667     0.750000000000   
Si     0.110633333333     0.637333333333     0.964700000000   
Si     0.251333333333     0.666100000000     0.892200000000   
Si     0.139900000000     0.363300000000     0.821600000000   
Si     0.252000000000     0.334500000000     0.750000000000   
O      0.181400000000     0.485300000000     0.454200000000   
O      0.109133333333     0.429900000000     0.429700000000   
O      0.150200000000     0.408433333333     0.474400000000   
O      0.118333333333     0.451666666667     0.500000000000   
O      0.294033333333     0.588066666667     0.378300000000   
O      0.259266666667     0.629633333333     0.400800000000   
O      0.217666666667     0.563000000000     0.360200000000   
O      0.078400000000     0.490133333333     0.319800000000   
O      0.101666666667     0.443000000000     0.286800000000   
O      0.156133333333     0.510500000000     0.319200000000   
O      0.267466666667     0.633733333333     0.250000000000   
O      0.288300000000     0.576633333333     0.250000000000   
Si     0.139966666667     0.443966666667     0.464700000000   
Si     0.251900000000     0.584666666667     0.392200000000   
Si     0.109933333333     0.473233333333     0.321600000000   
Si     0.250833333333     0.585333333333     0.250000000000   
O      0.029433333333     0.514733333333     0.954200000000   
O      0.012566666667     0.442466666667     0.929700000000   
O      0.075100000000     0.483533333333     0.974400000000   
O      0.000000000000     0.451666666667     0.000000000000   
O      0.039300000000     0.627366666667     0.878300000000   
O      0.296300000000     0.592600000000     0.900800000000   
O      0.321333333333     0.551000000000     0.860200000000   
O      0.254933333333     0.411733333333     0.819800000000   
O      0.325333333333     0.435000000000     0.786800000000   
O      0.312300000000     0.489466666667     0.819200000000   
O      0.300400000000     0.600800000000     0.750000000000   
O      0.045000000000     0.621633333333     0.750000000000   
Si     0.029333333333     0.473300000000     0.964700000000   
Si     0.000566666667     0.585233333333     0.892200000000   
Si     0.303366666667     0.443266666667     0.821600000000   
Si     0.332166666667     0.584166666667     0.750000000000   
O      0.303900000000     0.485300000000     0.045800000000   
O      0.320766666667     0.429900000000     0.070300000000   
O      0.258233333333     0.408433333333     0.025600000000   
O      0.294033333333     0.588066666667     0.121700000000   
O      0.037033333333     0.629633333333     0.099200000000   
O      0.012000000000     0.563000000000     0.139800000000   
O      0.078400000000     0.490133333333     0.180200000000   
O      0.008000000000     0.443000000000     0.213200000000   
O      0.021033333333     0.510500000000     0.180800000000   
Si     0.304000000000     0.443966666667     0.035300000000   
Si     0.332766666667     0.584666666667     0.107800000000   
Si     0.029966666667     0.473233333333     0.178400000000   
Si     0.001166666667     0.585333333333     0.250000000000   
O      0.151933333333     0.637233333333     0.545800000000   
O      0.224200000000     0.654100000000     0.570300000000   
O      0.183133333333     0.591566666667     0.525600000000   
O      0.039300000000     0.627366666667     0.621700000000   
O      0.074066666667     0.370366666667     0.599200000000   
O      0.115666666667     0.345333333333     0.639800000000   
O      0.254933333333     0.411733333333     0.680200000000   
O      0.231666666667     0.341333333333     0.713200000000   
O      0.177200000000     0.354366666667     0.680800000000   
Si     0.193366666667     0.637333333333     0.535300000000   
Si     0.081433333333     0.666100000000     0.607800000000   
Si     0.223400000000     0.363300000000     0.678400000000   
Si     0.082500000000     0.334500000000     0.750000000000   
O      0.181366666667     0.485266666667     0.045800000000   
O      0.236766666667     0.557533333333     0.070300000000   
O      0.258233333333     0.516466666667     0.025600000000   
O      0.078600000000     0.372633333333     0.121700000000   
O      0.037033333333     0.407400000000     0.099200000000   
O      0.103666666667     0.449000000000     0.139800000000   
O      0.176533333333     0.588266666667     0.180200000000   
O      0.223666666667     0.565000000000     0.213200000000   
O      0.156166666667     0.510533333333     0.180800000000   
Si     0.222700000000     0.526700000000     0.035300000000   
Si     0.082000000000     0.414766666667     0.107800000000   
Si     0.193433333333     0.556733333333     0.178400000000   
Si     0.081333333333     0.415833333333     0.250000000000   
O      0.029433333333     0.514700000000     0.545800000000   
O      0.012566666667     0.570100000000     0.570300000000   
O      0.075100000000     0.591566666667     0.525600000000   
O      0.039300000000     0.411933333333     0.621700000000   
O      0.296300000000     0.370366666667     0.599200000000   
O      0.321333333333     0.437000000000     0.639800000000   
O      0.254933333333     0.509866666667     0.680200000000   
O      0.325333333333     0.557000000000     0.713200000000   
O      0.312300000000     0.489500000000     0.680800000000   
Si     0.029333333333     0.556033333333     0.535300000000   
Si     0.000566666667     0.415333333333     0.607800000000   
Si     0.303366666667     0.526766666667     0.678400000000   
Si     0.332166666667     0.414666666667     0.750000000000   
O      0.181400000000     0.362766666667     0.045800000000   
O      0.109133333333     0.345900000000     0.070300000000   
O      0.150200000000     0.408433333333     0.025600000000   
O      0.294033333333     0.372633333333     0.121700000000   
O      0.259266666667     0.629633333333     0.099200000000   
O      0.217666666667     0.654666666667     0.139800000000   
O      0.078400000000     0.588266666667     0.180200000000   
O      0.101666666667     0.658666666667     0.213200000000   
O      0.156133333333     0.645633333333     0.180800000000   
Si     0.139966666667     0.362666666667     0.035300000000   
Si     0.251900000000     0.333900000000     0.107800000000   
Si     0.109933333333     0.636700000000     0.178400000000   
Si     0.250833333333     0.665500000000     0.250000000000   
O      0.151966666667     0.514733333333     0.545800000000   
O      0.096566666667     0.442466666667     0.570300000000   
O      0.075100000000     0.483533333333     0.525600000000   
O      0.254733333333     0.627366666667     0.621700000000   
O      0.296300000000     0.592600000000     0.599200000000   
O      0.229666666667     0.551000000000     0.639800000000   
O      0.156800000000     0.411733333333     0.680200000000   
O      0.109666666667     0.435000000000     0.713200000000   
O      0.177166666667     0.489466666667     0.680800000000   
Si     0.110633333333     0.473300000000     0.535300000000   
Si     0.251333333333     0.585233333333     0.607800000000   
Si     0.139900000000     0.443266666667     0.678400000000   
Si     0.252000000000     0.584166666667     0.750000000000   
O      0.096566666667     0.654100000000     0.570300000000   
O      0.118333333333     0.333333333333     0.500000000000   
O      0.229666666667     0.345333333333     0.639800000000   
O      0.109666666667     0.341333333333     0.713200000000   
Si     0.110633333333     0.637333333333     0.535300000000   
Si     0.251333333333     0.666100000000     0.607800000000   
Si     0.139900000000     0.363300000000     0.678400000000   
O      0.109133333333     0.429900000000     0.070300000000   
O      0.118333333333     0.451666666667     0.000000000000   
O      0.217666666667     0.563000000000     0.139800000000   
O      0.101666666667     0.443000000000     0.213200000000   
Si     0.139966666667     0.443966666667     0.035300000000   
Si     0.251900000000     0.584666666667     0.107800000000   
Si     0.109933333333     0.473233333333     0.178400000000   
O      0.012566666667     0.442466666667     0.570300000000   
O      0.000000000000     0.451666666667     0.500000000000   
O      0.321333333333     0.551000000000     0.639800000000   
O      0.325333333333     0.435000000000     0.713200000000   
Si     0.029333333333     0.473300000000     0.535300000000   
Si     0.000566666667     0.585233333333     0.607800000000   
Si     0.303366666667     0.443266666667     0.678400000000   
O      0.236766666667     0.345900000000     0.070300000000   
O      0.215000000000     0.333333333333     0.000000000000   
O      0.103666666667     0.654666666667     0.139800000000   
O      0.223666666667     0.658666666667     0.213200000000   
Si     0.222700000000     0.362666666667     0.035300000000   
Si     0.082000000000     0.333900000000     0.107800000000   
Si     0.193433333333     0.636700000000     0.178400000000   
O      0.224200000000     0.570100000000     0.570300000000   
O      0.215000000000     0.548333333333     0.500000000000   
O      0.115666666667     0.437000000000     0.639800000000   
O      0.231666666667     0.557000000000     0.713200000000   
Si     0.193366666667     0.556033333333     0.535300000000   
Si     0.081433333333     0.415333333333     0.607800000000   
Si     0.223400000000     0.526766666667     0.678400000000   
O      0.320766666667     0.557533333333     0.070300000000   
O      0.000000000000     0.548333333333     0.000000000000   
O      0.012000000000     0.449000000000     0.139800000000   
O      0.008000000000     0.565000000000     0.213200000000   
Si     0.304000000000     0.526700000000     0.035300000000   
Si     0.332766666667     0.414766666667     0.107800000000   
Si     0.029966666667     0.556733333333     0.178400000000   
O      0.012566666667     0.570100000000     0.929700000000   
O      0.321333333333     0.437000000000     0.860200000000   
O      0.325333333333     0.557000000000     0.786800000000   
Si     0.029333333333     0.556033333333     0.964700000000   