%BLOCK LATTICE_CART
ang    # angstrom units
  20.090000000000    0.000000000000     0.000000000000   
  0.000000000000     19.738000000000    0.000000000000   
  0.000000000000     0.000000000000     13.142000000000  
%ENDBLOCK LATTICE_CART

%BLOCK POSITIONS_FRAC
O      0.250600000000     0.034950000000     0.350900000000   
O      0.193750000000     0.037150000000     0.400400000000   
O      0.199750000000     0.068300000000     0.312550000000   
O      0.198600000000     0.001700000000     0.316300000000   
O      0.164500000000     0.019250000000     0.486100000000   
O      0.164850000000     0.477750000000     0.407750000000   
O      0.128550000000     0.033150000000     0.405300000000   
O      0.145500000000     0.064800000000     0.053000000000   
O      0.101700000000     0.022750000000     0.013750000000   
O      0.146800000000     0.000500000000     0.078200000000   
O      0.053750000000     0.063250000000     0.044150000000   
O      0.042300000000     0.018500000000     0.472150000000   
O      0.065050000000     0.039050000000     0.383500000000   
O      0.036400000000     0.479450000000     0.391600000000   
O      0.110050000000     0.065650000000     0.322800000000   
O      0.245550000000     0.427400000000     0.358450000000   
O      0.184050000000     0.415550000000     0.387150000000   
O      0.213150000000     0.375000000000     0.321550000000   
O      0.160850000000     0.430550000000     0.478050000000   
O      0.120500000000     0.429100000000     0.399500000000   
O      0.147150000000     0.375000000000     0.028950000000   
O      0.098800000000     0.415650000000     0.000150000000   
O      0.047400000000     0.375000000000     0.010250000000   
O      0.040450000000     0.433500000000     0.463750000000   
O      0.058850000000     0.418500000000     0.370300000000   
O      0.105800000000     0.375000000000     0.345650000000   
Si     0.210700000000     0.035550000000     0.344900000000   
Si     0.162950000000     0.016800000000     0.425000000000   
Si     0.139600000000     0.026800000000     0.032750000000   
Si     0.062300000000     0.025700000000     0.024050000000   
Si     0.036050000000     0.018000000000     0.411650000000   
Si     0.101700000000     0.034350000000     0.359850000000   
Si     0.209750000000     0.413700000000     0.340250000000   
Si     0.157600000000     0.438250000000     0.418050000000   
Si     0.136650000000     0.413900000000     0.020100000000   
Si     0.059250000000     0.413950000000     0.009150000000   
Si     0.032850000000     0.439700000000     0.404350000000   
Si     0.097350000000     0.414400000000     0.354600000000   
O      0.499400000000     0.465050000000     0.100900000000   
O      0.056250000000     0.462850000000     0.150400000000   
O      0.050250000000     0.431700000000     0.062550000000   
O      0.051400000000     0.498300000000     0.066300000000   
O      0.085500000000     0.480750000000     0.236100000000   
O      0.085150000000     0.022250000000     0.157750000000   
O      0.121450000000     0.466850000000     0.155300000000   
O      0.104500000000     0.435200000000     0.303000000000   
O      0.148300000000     0.477250000000     0.263750000000   
O      0.103200000000     0.499500000000     0.328200000000   
O      0.196250000000     0.436750000000     0.294150000000   
O      0.207700000000     0.481500000000     0.222150000000   
O      0.184950000000     0.460950000000     0.133500000000   
O      0.213600000000     0.020550000000     0.141600000000   
O      0.139950000000     0.434350000000     0.072800000000   
O      0.004450000000     0.072600000000     0.108450000000   
O      0.065950000000     0.084450000000     0.137150000000   
O      0.036850000000     0.125000000000     0.071550000000   
O      0.089150000000     0.069450000000     0.228050000000   
O      0.129500000000     0.070900000000     0.149500000000   
O      0.102850000000     0.125000000000     0.278950000000   
O      0.151200000000     0.084350000000     0.250150000000   
O      0.202600000000     0.125000000000     0.260250000000   
O      0.209550000000     0.066500000000     0.213750000000   
O      0.191150000000     0.081500000000     0.120300000000   
O      0.144200000000     0.125000000000     0.095650000000   
Si     0.039300000000     0.464450000000     0.094900000000   
Si     0.087050000000     0.483200000000     0.175000000000   
Si     0.110400000000     0.473200000000     0.282750000000   
Si     0.187700000000     0.474300000000     0.274050000000   
Si     0.213950000000     0.482000000000     0.161650000000   
Si     0.148300000000     0.465650000000     0.109850000000   
Si     0.040250000000     0.086300000000     0.090250000000   
Si     0.092400000000     0.061750000000     0.168050000000   
Si     0.113350000000     0.086100000000     0.270100000000   
Si     0.190750000000     0.086050000000     0.259150000000   
Si     0.217150000000     0.060300000000     0.154350000000   
Si     0.152650000000     0.085600000000     0.104600000000   
O      0.000600000000     0.215050000000     0.399100000000   
O      0.443750000000     0.212850000000     0.349600000000   
O      0.449750000000     0.181700000000     0.437450000000   
O      0.448600000000     0.248300000000     0.433700000000   
O      0.414500000000     0.230750000000     0.263900000000   
O      0.414850000000     0.272250000000     0.342250000000   
O      0.378550000000     0.216850000000     0.344700000000   
O      0.395500000000     0.185200000000     0.197000000000   
O      0.351700000000     0.227250000000     0.236250000000   
O      0.396800000000     0.249500000000     0.171800000000   
O      0.303750000000     0.186750000000     0.205850000000   
O      0.292300000000     0.231500000000     0.277850000000   
O      0.315050000000     0.210950000000     0.366500000000   
O      0.286400000000     0.270550000000     0.358400000000   
O      0.360050000000     0.184350000000     0.427200000000   
O      0.495550000000     0.322600000000     0.391550000000   
O      0.434050000000     0.334450000000     0.362850000000   
O      0.463150000000     0.375000000000     0.428450000000   
O      0.410850000000     0.319450000000     0.271950000000   
O      0.370500000000     0.320900000000     0.350500000000   
O      0.397150000000     0.375000000000     0.221050000000   
O      0.348800000000     0.334350000000     0.249850000000   
O      0.297400000000     0.375000000000     0.239750000000   
O      0.290450000000     0.316500000000     0.286250000000   
O      0.308850000000     0.331500000000     0.379700000000   
O      0.355800000000     0.375000000000     0.404350000000   
Si     0.460700000000     0.214450000000     0.405100000000   
Si     0.412950000000     0.233200000000     0.325000000000   
Si     0.389600000000     0.223200000000     0.217250000000   
Si     0.312300000000     0.224300000000     0.225950000000   
Si     0.286050000000     0.232000000000     0.338350000000   
Si     0.351700000000     0.215650000000     0.390150000000   
Si     0.459750000000     0.336300000000     0.409750000000   
Si     0.407600000000     0.311750000000     0.331950000000   
Si     0.386650000000     0.336100000000     0.229900000000   
Si     0.309250000000     0.336050000000     0.240850000000   
Si     0.282850000000     0.310300000000     0.345650000000   
Si     0.347350000000     0.335600000000     0.395400000000   
O      0.249400000000     0.284950000000     0.149100000000   
O      0.306250000000     0.287150000000     0.099600000000   
O      0.300250000000     0.318300000000     0.187450000000   
O      0.301400000000     0.251700000000     0.183700000000   
O      0.335500000000     0.269250000000     0.013900000000   
O      0.335150000000     0.227750000000     0.092250000000   
O      0.371450000000     0.283150000000     0.094700000000   
O      0.354500000000     0.314800000000     0.447000000000   
O      0.398300000000     0.272750000000     0.486250000000   
O      0.353200000000     0.250500000000     0.421800000000   
O      0.446250000000     0.313250000000     0.455850000000   
O      0.457700000000     0.268500000000     0.027850000000   
O      0.434950000000     0.289050000000     0.116500000000   
O      0.463600000000     0.229450000000     0.108400000000   
O      0.389950000000     0.315650000000     0.177200000000   
O      0.254450000000     0.177400000000     0.141550000000   
O      0.315950000000     0.165550000000     0.112850000000   
O      0.286850000000     0.125000000000     0.178450000000   
O      0.339150000000     0.180550000000     0.021950000000   
O      0.379500000000     0.179100000000     0.100500000000   
O      0.352850000000     0.125000000000     0.471050000000   
O      0.401200000000     0.165650000000     0.499850000000   
O      0.452600000000     0.125000000000     0.489750000000   
O      0.459550000000     0.183500000000     0.036250000000   
O      0.441150000000     0.168500000000     0.129700000000   
O      0.394200000000     0.125000000000     0.154350000000   
Si     0.289300000000     0.285550000000     0.155100000000   
Si     0.337050000000     0.266800000000     0.075000000000   
Si     0.360400000000     0.276800000000     0.467250000000   
Si     0.437700000000     0.275700000000     0.475950000000   
Si     0.463950000000     0.268000000000     0.088350000000   
Si     0.398300000000     0.284350000000     0.140150000000   
Si     0.290250000000     0.163700000000     0.159750000000   
Si     0.342400000000     0.188250000000     0.081950000000   
Si     0.363350000000     0.163900000000     0.479900000000   
Si     0.440750000000     0.163950000000     0.490850000000   
Si     0.467150000000     0.189700000000     0.095650000000   
Si     0.402650000000     0.164400000000     0.145400000000   
O      0.249400000000     0.465050000000     0.149100000000   
O      0.306250000000     0.462850000000     0.099600000000   
O      0.300250000000     0.431700000000     0.187450000000   
O      0.301400000000     0.498300000000     0.183700000000   
O      0.335500000000     0.480750000000     0.013900000000   
O      0.335150000000     0.022250000000     0.092250000000   
O      0.371450000000     0.466850000000     0.094700000000   
O      0.354500000000     0.435200000000     0.447000000000   
O      0.398300000000     0.477250000000     0.486250000000   
O      0.353200000000     0.499500000000     0.421800000000   
O      0.446250000000     0.436750000000     0.455850000000   
O      0.457700000000     0.481500000000     0.027850000000   
O      0.434950000000     0.460950000000     0.116500000000   
O      0.463600000000     0.020550000000     0.108400000000   
O      0.389950000000     0.434350000000     0.177200000000   
O      0.254450000000     0.072600000000     0.141550000000   
O      0.315950000000     0.084450000000     0.112850000000   
O      0.339150000000     0.069450000000     0.021950000000   
O      0.379500000000     0.070900000000     0.100500000000   
O      0.401200000000     0.084350000000     0.499850000000   
O      0.459550000000     0.066500000000     0.036250000000   
O      0.441150000000     0.081500000000     0.129700000000   
Si     0.289300000000     0.464450000000     0.155100000000   
Si     0.337050000000     0.483200000000     0.075000000000   
Si     0.360400000000     0.473200000000     0.467250000000   
Si     0.437700000000     0.474300000000     0.475950000000   
Si     0.463950000000     0.482000000000     0.088350000000   
Si     0.398300000000     0.465650000000     0.140150000000   
Si     0.290250000000     0.086300000000     0.159750000000   
Si     0.342400000000     0.061750000000     0.081950000000   
Si     0.363350000000     0.086100000000     0.479900000000   
Si     0.440750000000     0.086050000000     0.490850000000   
Si     0.467150000000     0.060300000000     0.095650000000   
Si     0.402650000000     0.085600000000     0.145400000000   
O      0.000600000000     0.034950000000     0.399100000000   
O      0.443750000000     0.037150000000     0.349600000000   
O      0.449750000000     0.068300000000     0.437450000000   
O      0.448600000000     0.001700000000     0.433700000000   
O      0.414500000000     0.019250000000     0.263900000000   
O      0.414850000000     0.477750000000     0.342250000000   
O      0.378550000000     0.033150000000     0.344700000000   
O      0.395500000000     0.064800000000     0.197000000000   
O      0.351700000000     0.022750000000     0.236250000000   
O      0.396800000000     0.000500000000     0.171800000000   
O      0.303750000000     0.063250000000     0.205850000000   
O      0.292300000000     0.018500000000     0.277850000000   
O      0.315050000000     0.039050000000     0.366500000000   
O      0.286400000000     0.479450000000     0.358400000000   
O      0.360050000000     0.065650000000     0.427200000000   
O      0.495550000000     0.427400000000     0.391550000000   
O      0.434050000000     0.415550000000     0.362850000000   
O      0.410850000000     0.430550000000     0.271950000000   
O      0.370500000000     0.429100000000     0.350500000000   
O      0.348800000000     0.415650000000     0.249850000000   
O      0.290450000000     0.433500000000     0.286250000000   
O      0.308850000000     0.418500000000     0.379700000000   
Si     0.460700000000     0.035550000000     0.405100000000   
Si     0.412950000000     0.016800000000     0.325000000000   
Si     0.389600000000     0.026800000000     0.217250000000   
Si     0.312300000000     0.025700000000     0.225950000000   
Si     0.286050000000     0.018000000000     0.338350000000   
Si     0.351700000000     0.034350000000     0.390150000000   
Si     0.459750000000     0.413700000000     0.409750000000   
Si     0.407600000000     0.438250000000     0.331950000000   
Si     0.386650000000     0.413900000000     0.229900000000   
Si     0.309250000000     0.413950000000     0.240850000000   
Si     0.282850000000     0.439700000000     0.345650000000   
Si     0.347350000000     0.414400000000     0.395400000000   
O      0.499400000000     0.284950000000     0.100900000000   
O      0.056250000000     0.287150000000     0.150400000000   
O      0.050250000000     0.318300000000     0.062550000000   
O      0.051400000000     0.251700000000     0.066300000000   
O      0.085500000000     0.269250000000     0.236100000000   
O      0.085150000000     0.227750000000     0.157750000000   
O      0.121450000000     0.283150000000     0.155300000000   
O      0.104500000000     0.314800000000     0.303000000000   
O      0.148300000000     0.272750000000     0.263750000000   
O      0.103200000000     0.250500000000     0.328200000000   
O      0.196250000000     0.313250000000     0.294150000000   
O      0.207700000000     0.268500000000     0.222150000000   
O      0.184950000000     0.289050000000     0.133500000000   
O      0.213600000000     0.229450000000     0.141600000000   
O      0.139950000000     0.315650000000     0.072800000000   
O      0.004450000000     0.177400000000     0.108450000000   
O      0.065950000000     0.165550000000     0.137150000000   
O      0.089150000000     0.180550000000     0.228050000000   
O      0.129500000000     0.179100000000     0.149500000000   
O      0.151200000000     0.165650000000     0.250150000000   
O      0.209550000000     0.183500000000     0.213750000000   
O      0.191150000000     0.168500000000     0.120300000000   
Si     0.039300000000     0.285550000000     0.094900000000   
Si     0.087050000000     0.266800000000     0.175000000000   
Si     0.110400000000     0.276800000000     0.282750000000   
Si     0.187700000000     0.275700000000     0.274050000000   
Si     0.213950000000     0.268000000000     0.161650000000   
Si     0.148300000000     0.284350000000     0.109850000000   
Si     0.040250000000     0.163700000000     0.090250000000   
Si     0.092400000000     0.188250000000     0.168050000000   
Si     0.113350000000     0.163900000000     0.270100000000   
Si     0.190750000000     0.163950000000     0.259150000000   
Si     0.217150000000     0.189700000000     0.154350000000   
Si     0.152650000000     0.164400000000     0.104600000000   
O      0.250600000000     0.215050000000     0.350900000000   
O      0.193750000000     0.212850000000     0.400400000000   
O      0.199750000000     0.181700000000     0.312550000000   
O      0.198600000000     0.248300000000     0.316300000000   
O      0.164500000000     0.230750000000     0.486100000000   
O      0.164850000000     0.272250000000     0.407750000000   
O      0.128550000000     0.216850000000     0.405300000000   
O      0.145500000000     0.185200000000     0.053000000000   
O      0.101700000000     0.227250000000     0.013750000000   
O      0.146800000000     0.249500000000     0.078200000000   
O      0.053750000000     0.186750000000     0.044150000000   
O      0.042300000000     0.231500000000     0.472150000000   
O      0.065050000000     0.210950000000     0.383500000000   
O      0.036400000000     0.270550000000     0.391600000000   
O      0.110050000000     0.184350000000     0.322800000000   
O      0.245550000000     0.322600000000     0.358450000000   
O      0.184050000000     0.334450000000     0.387150000000   
O      0.160850000000     0.319450000000     0.478050000000   
O      0.120500000000     0.320900000000     0.399500000000   
O      0.098800000000     0.334350000000     0.000150000000   
O      0.040450000000     0.316500000000     0.463750000000   
O      0.058850000000     0.331500000000     0.370300000000   
Si     0.210700000000     0.214450000000     0.344900000000   
Si     0.162950000000     0.233200000000     0.425000000000   
Si     0.139600000000     0.223200000000     0.032750000000   
Si     0.062300000000     0.224300000000     0.024050000000   
Si     0.036050000000     0.232000000000     0.411650000000   
Si     0.101700000000     0.215650000000     0.359850000000   
Si     0.209750000000     0.336300000000     0.340250000000   
Si     0.157600000000     0.311750000000     0.418050000000   
Si     0.136650000000     0.336100000000     0.020100000000   
Si     0.059250000000     0.336050000000     0.009150000000   
Si     0.032850000000     0.310300000000     0.404350000000   
Si     0.097350000000     0.335600000000     0.354600000000   
O      0.250600000000     0.034950000000     0.850900000000   
O      0.193750000000     0.037150000000     0.900400000000   
O      0.199750000000     0.068300000000     0.812550000000   
O      0.198600000000     0.001700000000     0.816300000000   
O      0.164500000000     0.019250000000     0.986100000000   
O      0.164850000000     0.477750000000     0.907750000000   
O      0.128550000000     0.033150000000     0.905300000000   
O      0.145500000000     0.064800000000     0.553000000000   
O      0.101700000000     0.022750000000     0.513750000000   
O      0.146800000000     0.000500000000     0.578200000000   
O      0.053750000000     0.063250000000     0.544150000000   
O      0.042300000000     0.018500000000     0.972150000000   
O      0.065050000000     0.039050000000     0.883500000000   
O      0.036400000000     0.479450000000     0.891600000000   
O      0.110050000000     0.065650000000     0.822800000000   
O      0.245550000000     0.427400000000     0.858450000000   
O      0.184050000000     0.415550000000     0.887150000000   
O      0.213150000000     0.375000000000     0.821550000000   
O      0.160850000000     0.430550000000     0.978050000000   
O      0.120500000000     0.429100000000     0.899500000000   
O      0.147150000000     0.375000000000     0.528950000000   
O      0.098800000000     0.415650000000     0.500150000000   
O      0.047400000000     0.375000000000     0.510250000000   
O      0.040450000000     0.433500000000     0.963750000000   
O      0.058850000000     0.418500000000     0.870300000000   
O      0.105800000000     0.375000000000     0.845650000000   
Si     0.210700000000     0.035550000000     0.844900000000   
Si     0.162950000000     0.016800000000     0.925000000000   
Si     0.139600000000     0.026800000000     0.532750000000   
Si     0.062300000000     0.025700000000     0.524050000000   
Si     0.036050000000     0.018000000000     0.911650000000   
Si     0.101700000000     0.034350000000     0.859850000000   
Si     0.209750000000     0.413700000000     0.840250000000   
Si     0.157600000000     0.438250000000     0.918050000000   
Si     0.136650000000     0.413900000000     0.520100000000   
Si     0.059250000000     0.413950000000     0.509150000000   
Si     0.032850000000     0.439700000000     0.904350000000   
Si     0.097350000000     0.414400000000     0.854600000000   
O      0.499400000000     0.465050000000     0.600900000000   
O      0.056250000000     0.462850000000     0.650400000000   
O      0.050250000000     0.431700000000     0.562550000000   
O      0.051400000000     0.498300000000     0.566300000000   
O      0.085500000000     0.480750000000     0.736100000000   
O      0.085150000000     0.022250000000     0.657750000000   
O      0.121450000000     0.466850000000     0.655300000000   
O      0.104500000000     0.435200000000     0.803000000000   
O      0.148300000000     0.477250000000     0.763750000000   
O      0.103200000000     0.499500000000     0.828200000000   
O      0.196250000000     0.436750000000     0.794150000000   
O      0.207700000000     0.481500000000     0.722150000000   
O      0.184950000000     0.460950000000     0.633500000000   
O      0.213600000000     0.020550000000     0.641600000000   
O      0.139950000000     0.434350000000     0.572800000000   
O      0.004450000000     0.072600000000     0.608450000000   
O      0.065950000000     0.084450000000     0.637150000000   
O      0.036850000000     0.125000000000     0.571550000000   
O      0.089150000000     0.069450000000     0.728050000000   
O      0.129500000000     0.070900000000     0.649500000000   
O      0.102850000000     0.125000000000     0.778950000000   
O      0.151200000000     0.084350000000     0.750150000000   
O      0.202600000000     0.125000000000     0.760250000000   
O      0.209550000000     0.066500000000     0.713750000000   
O      0.191150000000     0.081500000000     0.620300000000   
O      0.144200000000     0.125000000000     0.595650000000   
Si     0.039300000000     0.464450000000     0.594900000000   
Si     0.087050000000     0.483200000000     0.675000000000   
Si     0.110400000000     0.473200000000     0.782750000000   
Si     0.187700000000     0.474300000000     0.774050000000   
Si     0.213950000000     0.482000000000     0.661650000000   
Si     0.148300000000     0.465650000000     0.609850000000   
Si     0.040250000000     0.086300000000     0.590250000000   
Si     0.092400000000     0.061750000000     0.668050000000   
Si     0.113350000000     0.086100000000     0.770100000000   
Si     0.190750000000     0.086050000000     0.759150000000   
Si     0.217150000000     0.060300000000     0.654350000000   
Si     0.152650000000     0.085600000000     0.604600000000   
O      0.000600000000     0.215050000000     0.899100000000   
O      0.443750000000     0.212850000000     0.849600000000   
O      0.449750000000     0.181700000000     0.937450000000   
O      0.448600000000     0.248300000000     0.933700000000   
O      0.414500000000     0.230750000000     0.763900000000   
O      0.414850000000     0.272250000000     0.842250000000   
O      0.378550000000     0.216850000000     0.844700000000   
O      0.395500000000     0.185200000000     0.697000000000   
O      0.351700000000     0.227250000000     0.736250000000   
O      0.396800000000     0.249500000000     0.671800000000   
O      0.303750000000     0.186750000000     0.705850000000   
O      0.292300000000     0.231500000000     0.777850000000   
O      0.315050000000     0.210950000000     0.866500000000   
O      0.286400000000     0.270550000000     0.858400000000   
O      0.360050000000     0.184350000000     0.927200000000   
O      0.495550000000     0.322600000000     0.891550000000   
O      0.434050000000     0.334450000000     0.862850000000   
O      0.463150000000     0.375000000000     0.928450000000   
O      0.410850000000     0.319450000000     0.771950000000   
O      0.370500000000     0.320900000000     0.850500000000   
O      0.397150000000     0.375000000000     0.721050000000   
O      0.348800000000     0.334350000000     0.749850000000   
O      0.297400000000     0.375000000000     0.739750000000   
O      0.290450000000     0.316500000000     0.786250000000   
O      0.308850000000     0.331500000000     0.879700000000   
O      0.355800000000     0.375000000000     0.904350000000   
Si     0.460700000000     0.214450000000     0.905100000000   
Si     0.412950000000     0.233200000000     0.825000000000   
Si     0.389600000000     0.223200000000     0.717250000000   
Si     0.312300000000     0.224300000000     0.725950000000   
Si     0.286050000000     0.232000000000     0.838350000000   
Si     0.351700000000     0.215650000000     0.890150000000   
Si     0.459750000000     0.336300000000     0.909750000000   
Si     0.407600000000     0.311750000000     0.831950000000   
Si     0.386650000000     0.336100000000     0.729900000000   
Si     0.309250000000     0.336050000000     0.740850000000   
Si     0.282850000000     0.310300000000     0.845650000000   
Si     0.347350000000     0.335600000000     0.895400000000   
O      0.249400000000     0.284950000000     0.649100000000   
O      0.306250000000     0.287150000000     0.599600000000   
O      0.300250000000     0.318300000000     0.687450000000   
O      0.301400000000     0.251700000000     0.683700000000   
O      0.335500000000     0.269250000000     0.513900000000   
O      0.335150000000     0.227750000000     0.592250000000   
O      0.371450000000     0.283150000000     0.594700000000   
O      0.354500000000     0.314800000000     0.947000000000   
O      0.398300000000     0.272750000000     0.986250000000   
O      0.353200000000     0.250500000000     0.921800000000   
O      0.446250000000     0.313250000000     0.955850000000   
O      0.457700000000     0.268500000000     0.527850000000   
O      0.434950000000     0.289050000000     0.616500000000   
O      0.463600000000     0.229450000000     0.608400000000   
O      0.389950000000     0.315650000000     0.677200000000   
O      0.254450000000     0.177400000000     0.641550000000   
O      0.315950000000     0.165550000000     0.612850000000   
O      0.286850000000     0.125000000000     0.678450000000   
O      0.339150000000     0.180550000000     0.521950000000   
O      0.379500000000     0.179100000000     0.600500000000   
O      0.352850000000     0.125000000000     0.971050000000   
O      0.401200000000     0.165650000000     0.999850000000   
O      0.452600000000     0.125000000000     0.989750000000   
O      0.459550000000     0.183500000000     0.536250000000   
O      0.441150000000     0.168500000000     0.629700000000   
O      0.394200000000     0.125000000000     0.654350000000   
Si     0.289300000000     0.285550000000     0.655100000000   
Si     0.337050000000     0.266800000000     0.575000000000   
Si     0.360400000000     0.276800000000     0.967250000000   
Si     0.437700000000     0.275700000000     0.975950000000   
Si     0.463950000000     0.268000000000     0.588350000000   
Si     0.398300000000     0.284350000000     0.640150000000   
Si     0.290250000000     0.163700000000     0.659750000000   
Si     0.342400000000     0.188250000000     0.581950000000   
Si     0.363350000000     0.163900000000     0.979900000000   
Si     0.440750000000     0.163950000000     0.990850000000   
Si     0.467150000000     0.189700000000     0.595650000000   
Si     0.402650000000     0.164400000000     0.645400000000   
O      0.249400000000     0.465050000000     0.649100000000   
O      0.306250000000     0.462850000000     0.599600000000   
O      0.300250000000     0.431700000000     0.687450000000   
O      0.301400000000     0.498300000000     0.683700000000   
O      0.335500000000     0.480750000000     0.513900000000   
O      0.335150000000     0.022250000000     0.592250000000   
O      0.371450000000     0.466850000000     0.594700000000   
O      0.354500000000     0.435200000000     0.947000000000   
O      0.398300000000     0.477250000000     0.986250000000   
O      0.353200000000     0.499500000000     0.921800000000   
O      0.446250000000     0.436750000000     0.955850000000   
O      0.457700000000     0.481500000000     0.527850000000   
O      0.434950000000     0.460950000000     0.616500000000   
O      0.463600000000     0.020550000000     0.608400000000   
O      0.389950000000     0.434350000000     0.677200000000   
O      0.254450000000     0.072600000000     0.641550000000   
O      0.315950000000     0.084450000000     0.612850000000   
O      0.339150000000     0.069450000000     0.521950000000   
O      0.379500000000     0.070900000000     0.600500000000   
O      0.401200000000     0.084350000000     0.999850000000   
O      0.459550000000     0.066500000000     0.536250000000   
O      0.441150000000     0.081500000000     0.629700000000   
Si     0.289300000000     0.464450000000     0.655100000000   
Si     0.337050000000     0.483200000000     0.575000000000   
Si     0.360400000000     0.473200000000     0.967250000000   
Si     0.437700000000     0.474300000000     0.975950000000   
Si     0.463950000000     0.482000000000     0.588350000000   
Si     0.398300000000     0.465650000000     0.640150000000   
Si     0.290250000000     0.086300000000     0.659750000000   
Si     0.342400000000     0.061750000000     0.581950000000   
Si     0.363350000000     0.086100000000     0.979900000000   
Si     0.440750000000     0.086050000000     0.990850000000   