%BLOCK LATTICE_CART
ang    # angstrom units
  13.072050000000    0.000000000000     0.000000000000   
 -6.536025000000     11.320727379540    0.000000000000   
  0.000000000000     0.000000000000     30.261790000000  
%ENDBLOCK LATTICE_CART

%BLOCK POSITIONS_FRAC
Si     0.031873333333     0.141986666667     0.125060000000   
Si     0.333290000000     0.078116666667     0.199120000000   
Si     0.000160000000     0.078250000000     0.050920000000   
O      0.078180000000     0.156360000000     0.124850000000   
O      0.011696666667     0.115996666667     0.168560000000   
O      0.025533333333     0.179433333333     0.125120000000   
O      0.011376666667     0.115870000000     0.081730000000   
O      0.032293333333     0.064586666667     0.193440000000   
O      0.331796666667     0.089286666667     0.250000000000   
O      0.290720000000     0.042613333333     0.184650000000   
O      0.032263333333     0.064526666667     0.057600000000   
O      0.000000000000     0.090036666667     0.000000000000   
O      0.290546666667     0.042786666667     0.064260000000   
Si     0.223220000000     0.031873333333     0.625060000000   
Si     0.255173333333     0.333290000000     0.699120000000   
Si     0.255243333333     0.000160000000     0.550920000000   
O      0.255153333333     0.078180000000     0.624850000000   
O      0.229033333333     0.011696666667     0.668560000000   
O      0.179433333333     0.025533333333     0.625120000000   
O      0.228840000000     0.011376666667     0.581730000000   
O      0.301040000000     0.032293333333     0.693440000000   
O      0.242510000000     0.331796666667     0.750000000000   
O      0.248106666667     0.290720000000     0.684650000000   
O      0.301070000000     0.032263333333     0.557600000000   
O      0.243296666667     0.000000000000     0.500000000000   
O      0.247760000000     0.290546666667     0.564260000000   
Si     0.191346666667     0.223220000000     0.125060000000   
Si     0.255216666667     0.255173333333     0.199120000000   
Si     0.255083333333     0.255243333333     0.050920000000   
O      0.176973333333     0.255153333333     0.124850000000   
O      0.217336666667     0.229033333333     0.168560000000   
O      0.153900000000     0.179433333333     0.125120000000   
O      0.217463333333     0.228840000000     0.081730000000   
O      0.268746666667     0.301040000000     0.193440000000   
O      0.244046666667     0.242510000000     0.250000000000   
O      0.290720000000     0.248106666667     0.184650000000   
O      0.268806666667     0.301070000000     0.057600000000   
O      0.243296666667     0.243296666667     0.000000000000   
O      0.290546666667     0.247760000000     0.064260000000   
Si     0.301460000000     0.191346666667     0.625060000000   
Si     0.000043333333     0.255216666667     0.699120000000   
Si     0.333173333333     0.255083333333     0.550920000000   
O      0.255153333333     0.176973333333     0.624850000000   
O      0.321636666667     0.217336666667     0.668560000000   
O      0.307800000000     0.153900000000     0.625120000000   
O      0.321956666667     0.217463333333     0.581730000000   
O      0.301040000000     0.268746666667     0.693440000000   
O      0.001536666667     0.244046666667     0.750000000000   
O      0.042613333333     0.290720000000     0.684650000000   
O      0.301070000000     0.268806666667     0.557600000000   
O      0.000000000000     0.243296666667     0.500000000000   
O      0.042786666667     0.290546666667     0.564260000000   
Si     0.110113333333     0.301460000000     0.125060000000   
Si     0.078160000000     0.000043333333     0.199120000000   
Si     0.078090000000     0.333173333333     0.050920000000   
O      0.078180000000     0.255153333333     0.124850000000   
O      0.104300000000     0.321636666667     0.168560000000   
O      0.153900000000     0.307800000000     0.125120000000   
O      0.104493333333     0.321956666667     0.081730000000   
O      0.032293333333     0.301040000000     0.193440000000   
O      0.090823333333     0.001536666667     0.250000000000   
O      0.085226666667     0.042613333333     0.184650000000   
O      0.032263333333     0.301070000000     0.057600000000   
O      0.090036666667     0.000000000000     0.000000000000   
O      0.085573333333     0.042786666667     0.064260000000   
Si     0.141986666667     0.110113333333     0.625060000000   
Si     0.078116666667     0.078160000000     0.699120000000   
Si     0.078250000000     0.078090000000     0.550920000000   
O      0.156360000000     0.078180000000     0.624850000000   
O      0.115996666667     0.104300000000     0.668560000000   
O      0.179433333333     0.153900000000     0.625120000000   
O      0.115870000000     0.104493333333     0.581730000000   
O      0.064586666667     0.032293333333     0.693440000000   
O      0.089286666667     0.090823333333     0.750000000000   
O      0.042613333333     0.085226666667     0.684650000000   
O      0.064526666667     0.032263333333     0.557600000000   
O      0.090036666667     0.090036666667     0.500000000000   
O      0.042786666667     0.085573333333     0.564260000000   
Si     0.191346666667     0.301460000000     0.374940000000   
Si     0.255216666667     0.000043333333     0.300880000000   
Si     0.255083333333     0.333173333333     0.449080000000   
O      0.176973333333     0.255153333333     0.375150000000   
O      0.217336666667     0.321636666667     0.331440000000   
O      0.153900000000     0.307800000000     0.374880000000   
O      0.217463333333     0.321956666667     0.418270000000   
O      0.268746666667     0.301040000000     0.306560000000   
O      0.244046666667     0.001536666667     0.250000000000   
O      0.290720000000     0.042613333333     0.315350000000   
O      0.268806666667     0.301070000000     0.442400000000   
O      0.290546666667     0.042786666667     0.435740000000   
Si     0.223220000000     0.191346666667     0.874940000000   
Si     0.255173333333     0.255216666667     0.800880000000   
Si     0.255243333333     0.255083333333     0.949080000000   
O      0.255153333333     0.176973333333     0.875150000000   
O      0.229033333333     0.217336666667     0.831440000000   
O      0.179433333333     0.153900000000     0.874880000000   
O      0.228840000000     0.217463333333     0.918270000000   
O      0.301040000000     0.268746666667     0.806560000000   
O      0.242510000000     0.244046666667     0.750000000000   
O      0.248106666667     0.290720000000     0.815350000000   
O      0.301070000000     0.268806666667     0.942400000000   
O      0.247760000000     0.290546666667     0.935740000000   
Si     0.031873333333     0.223220000000     0.374940000000   
Si     0.333290000000     0.255173333333     0.300880000000   
Si     0.000160000000     0.255243333333     0.449080000000   
O      0.078180000000     0.255153333333     0.375150000000   
O      0.011696666667     0.229033333333     0.331440000000   
O      0.025533333333     0.179433333333     0.374880000000   
O      0.011376666667     0.228840000000     0.418270000000   
O      0.032293333333     0.301040000000     0.306560000000   
O      0.331796666667     0.242510000000     0.250000000000   
O      0.290720000000     0.248106666667     0.315350000000   
O      0.032263333333     0.301070000000     0.442400000000   
O      0.290546666667     0.247760000000     0.435740000000   
Si     0.141986666667     0.031873333333     0.874940000000   
Si     0.078116666667     0.333290000000     0.800880000000   
Si     0.078250000000     0.000160000000     0.949080000000   
O      0.156360000000     0.078180000000     0.875150000000   
O      0.115996666667     0.011696666667     0.831440000000   
O      0.179433333333     0.025533333333     0.874880000000   
O      0.115870000000     0.011376666667     0.918270000000   
O      0.064586666667     0.032293333333     0.806560000000   
O      0.089286666667     0.331796666667     0.750000000000   
O      0.042613333333     0.290720000000     0.815350000000   
O      0.064526666667     0.032263333333     0.942400000000   
O      0.042786666667     0.290546666667     0.935740000000   
Si     0.110113333333     0.141986666667     0.374940000000   
Si     0.078160000000     0.078116666667     0.300880000000   
Si     0.078090000000     0.078250000000     0.449080000000   
O      0.078180000000     0.156360000000     0.375150000000   
O      0.104300000000     0.115996666667     0.331440000000   
O      0.153900000000     0.179433333333     0.374880000000   
O      0.104493333333     0.115870000000     0.418270000000   
O      0.032293333333     0.064586666667     0.306560000000   
O      0.090823333333     0.089286666667     0.250000000000   
O      0.085226666667     0.042613333333     0.315350000000   
O      0.032263333333     0.064526666667     0.442400000000   
O      0.085573333333     0.042786666667     0.435740000000   
Si     0.301460000000     0.110113333333     0.874940000000   
Si     0.000043333333     0.078160000000     0.800880000000   
Si     0.333173333333     0.078090000000     0.949080000000   
O      0.255153333333     0.078180000000     0.875150000000   
O      0.321636666667     0.104300000000     0.831440000000   
O      0.307800000000     0.153900000000     0.874880000000   
O      0.321956666667     0.104493333333     0.918270000000   
O      0.301040000000     0.032293333333     0.806560000000   
O      0.001536666667     0.090823333333     0.750000000000   
O      0.042613333333     0.085226666667     0.815350000000   
O      0.301070000000     0.032263333333     0.942400000000   
O      0.042786666667     0.085573333333     0.935740000000   
Si     0.301460000000     0.191346666667     0.874940000000   
Si     0.000043333333     0.255216666667     0.800880000000   
Si     0.333173333333     0.255083333333     0.949080000000   
O      0.321636666667     0.217336666667     0.831440000000   
O      0.321956666667     0.217463333333     0.918270000000   
O      0.000000000000     0.243296666667     0.000000000000   
Si     0.110113333333     0.301460000000     0.374940000000   
Si     0.078160000000     0.000043333333     0.300880000000   
Si     0.078090000000     0.333173333333     0.449080000000   
O      0.104300000000     0.321636666667     0.331440000000   
O      0.104493333333     0.321956666667     0.418270000000   
O      0.090036666667     0.000000000000     0.500000000000   
Si     0.141986666667     0.110113333333     0.874940000000   
Si     0.078116666667     0.078160000000     0.800880000000   
Si     0.078250000000     0.078090000000     0.949080000000   
O      0.115996666667     0.104300000000     0.831440000000   
O      0.115870000000     0.104493333333     0.918270000000   
O      0.090036666667     0.090036666667     0.000000000000   
Si     0.031873333333     0.141986666667     0.374940000000   
Si     0.333290000000     0.078116666667     0.300880000000   
Si     0.000160000000     0.078250000000     0.449080000000   
O      0.011696666667     0.115996666667     0.331440000000   
O      0.011376666667     0.115870000000     0.418270000000   
O      0.000000000000     0.090036666667     0.500000000000   
Si     0.223220000000     0.031873333333     0.874940000000   
Si     0.255173333333     0.333290000000     0.800880000000   
Si     0.255243333333     0.000160000000     0.949080000000   
O      0.229033333333     0.011696666667     0.831440000000   
O      0.228840000000     0.011376666667     0.918270000000   
O      0.243296666667     0.000000000000     0.000000000000   
Si     0.191346666667     0.223220000000     0.374940000000   
Si     0.255216666667     0.255173333333     0.300880000000   
Si     0.255083333333     0.255243333333     0.449080000000   
O      0.217336666667     0.229033333333     0.331440000000   
O      0.217463333333     0.228840000000     0.418270000000   
O      0.243296666667     0.243296666667     0.500000000000   
Si     0.141986666667     0.031873333333     0.625060000000   
Si     0.078116666667     0.333290000000     0.699120000000   
Si     0.078250000000     0.000160000000     0.550920000000   
O      0.115996666667     0.011696666667     0.668560000000   
O      0.115870000000     0.011376666667     0.581730000000   
Si     0.110113333333     0.141986666667     0.125060000000   
Si     0.078160000000     0.078116666667     0.199120000000   
Si     0.078090000000     0.078250000000     0.050920000000   
O      0.104300000000     0.115996666667     0.168560000000   
O      0.104493333333     0.115870000000     0.081730000000   
Si     0.301460000000     0.110113333333     0.625060000000   
Si     0.000043333333     0.078160000000     0.699120000000   
Si     0.333173333333     0.078090000000     0.550920000000   
O      0.321636666667     0.104300000000     0.668560000000   
O      0.321956666667     0.104493333333     0.581730000000   
Si     0.191346666667     0.301460000000     0.125060000000   
Si     0.255216666667     0.000043333333     0.199120000000   
Si     0.255083333333     0.333173333333     0.050920000000   
O      0.217336666667     0.321636666667     0.168560000000   
O      0.217463333333     0.321956666667     0.081730000000   
Si     0.223220000000     0.191346666667     0.625060000000   
Si     0.255173333333     0.255216666667     0.699120000000   
Si     0.255243333333     0.255083333333     0.550920000000   
O      0.229033333333     0.217336666667     0.668560000000   
O      0.228840000000     0.217463333333     0.581730000000   
Si     0.031873333333     0.223220000000     0.125060000000   
Si     0.333290000000     0.255173333333     0.199120000000   
Si     0.000160000000     0.255243333333     0.050920000000   
O      0.011696666667     0.229033333333     0.168560000000   
O      0.011376666667     0.228840000000     0.081730000000   
Si     0.031873333333     0.475320000000     0.125060000000   
Si     0.333290000000     0.411450000000     0.199120000000   
Si     0.000160000000     0.411583333333     0.050920000000   
O      0.078180000000     0.489693333333     0.124850000000   
O      0.011696666667     0.449330000000     0.168560000000   
O      0.025533333333     0.512766666667     0.125120000000   
O      0.011376666667     0.449203333333     0.081730000000   
O      0.032293333333     0.397920000000     0.193440000000   
O      0.331796666667     0.422620000000     0.250000000000   
O      0.290720000000     0.375946666667     0.184650000000   
O      0.032263333333     0.397860000000     0.057600000000   
O      0.000000000000     0.423370000000     0.000000000000   
O      0.290546666667     0.376120000000     0.064260000000   
Si     0.223220000000     0.365206666667     0.625060000000   
Si     0.255173333333     0.666623333333     0.699120000000   
Si     0.255243333333     0.333493333333     0.550920000000   
O      0.255153333333     0.411513333333     0.624850000000   
O      0.229033333333     0.345030000000     0.668560000000   
O      0.179433333333     0.358866666667     0.625120000000   
O      0.228840000000     0.344710000000     0.581730000000   
O      0.301040000000     0.365626666667     0.693440000000   
O      0.242510000000     0.665130000000     0.750000000000   
O      0.248106666667     0.624053333333     0.684650000000   
O      0.301070000000     0.365596666667     0.557600000000   
O      0.243296666667     0.333333333333     0.500000000000   
O      0.247760000000     0.623880000000     0.564260000000   
Si     0.191346666667     0.556553333333     0.125060000000   
Si     0.255216666667     0.588506666667     0.199120000000   
Si     0.255083333333     0.588576666667     0.050920000000   
O      0.176973333333     0.588486666667     0.124850000000   
O      0.217336666667     0.562366666667     0.168560000000   
O      0.153900000000     0.512766666667     0.125120000000   
O      0.217463333333     0.562173333333     0.081730000000   
O      0.268746666667     0.634373333333     0.193440000000   
O      0.244046666667     0.575843333333     0.250000000000   
O      0.290720000000     0.581440000000     0.184650000000   
O      0.268806666667     0.634403333333     0.057600000000   
O      0.243296666667     0.576630000000     0.000000000000   
O      0.290546666667     0.581093333333     0.064260000000   
Si     0.301460000000     0.524680000000     0.625060000000   
Si     0.000043333333     0.588550000000     0.699120000000   
Si     0.333173333333     0.588416666667     0.550920000000   
O      0.255153333333     0.510306666667     0.624850000000   
O      0.321636666667     0.550670000000     0.668560000000   
O      0.307800000000     0.487233333333     0.625120000000   
O      0.321956666667     0.550796666667     0.581730000000   
O      0.301040000000     0.602080000000     0.693440000000   
O      0.001536666667     0.577380000000     0.750000000000   
O      0.042613333333     0.624053333333     0.684650000000   
O      0.301070000000     0.602140000000     0.557600000000   
O      0.000000000000     0.576630000000     0.500000000000   
O      0.042786666667     0.623880000000     0.564260000000   
Si     0.110113333333     0.634793333333     0.125060000000   
Si     0.078160000000     0.333376666667     0.199120000000   
Si     0.078090000000     0.666506666667     0.050920000000   
O      0.078180000000     0.588486666667     0.124850000000   
O      0.104300000000     0.654970000000     0.168560000000   
O      0.153900000000     0.641133333333     0.125120000000   
O      0.104493333333     0.655290000000     0.081730000000   
O      0.032293333333     0.634373333333     0.193440000000   
O      0.090823333333     0.334870000000     0.250000000000   
O      0.085226666667     0.375946666667     0.184650000000   
O      0.032263333333     0.634403333333     0.057600000000   
O      0.090036666667     0.333333333333     0.000000000000   
O      0.085573333333     0.376120000000     0.064260000000   
Si     0.141986666667     0.443446666667     0.625060000000   
Si     0.078116666667     0.411493333333     0.699120000000   
Si     0.078250000000     0.411423333333     0.550920000000   
O      0.156360000000     0.411513333333     0.624850000000   
O      0.115996666667     0.437633333333     0.668560000000   
O      0.179433333333     0.487233333333     0.625120000000   
O      0.115870000000     0.437826666667     0.581730000000   
O      0.064586666667     0.365626666667     0.693440000000   
O      0.089286666667     0.424156666667     0.750000000000   
O      0.042613333333     0.418560000000     0.684650000000   
O      0.064526666667     0.365596666667     0.557600000000   
O      0.090036666667     0.423370000000     0.500000000000   
O      0.042786666667     0.418906666667     0.564260000000   
Si     0.191346666667     0.634793333333     0.374940000000   
Si     0.255216666667     0.333376666667     0.300880000000   
Si     0.255083333333     0.666506666667     0.449080000000   
O      0.176973333333     0.588486666667     0.375150000000   
O      0.217336666667     0.654970000000     0.331440000000   
O      0.153900000000     0.641133333333     0.374880000000   
O      0.217463333333     0.655290000000     0.418270000000   
O      0.268746666667     0.634373333333     0.306560000000   
O      0.244046666667     0.334870000000     0.250000000000   
O      0.290720000000     0.375946666667     0.315350000000   
O      0.268806666667     0.634403333333     0.442400000000   
O      0.290546666667     0.376120000000     0.435740000000   
Si     0.223220000000     0.524680000000     0.874940000000   
Si     0.255173333333     0.588550000000     0.800880000000   
Si     0.255243333333     0.588416666667     0.949080000000   
O      0.255153333333     0.510306666667     0.875150000000   
O      0.229033333333     0.550670000000     0.831440000000   
O      0.179433333333     0.487233333333     0.874880000000   
O      0.228840000000     0.550796666667     0.918270000000   
O      0.301040000000     0.602080000000     0.806560000000   
O      0.242510000000     0.577380000000     0.750000000000   
O      0.248106666667     0.624053333333     0.815350000000   
O      0.301070000000     0.602140000000     0.942400000000   
O      0.247760000000     0.623880000000     0.935740000000   
Si     0.031873333333     0.556553333333     0.374940000000   
Si     0.333290000000     0.588506666667     0.300880000000   
Si     0.000160000000     0.588576666667     0.449080000000   
O      0.078180000000     0.588486666667     0.375150000000   
O      0.011696666667     0.562366666667     0.331440000000   
O      0.025533333333     0.512766666667     0.374880000000   
O      0.011376666667     0.562173333333     0.418270000000   
O      0.032293333333     0.634373333333     0.306560000000   
O      0.331796666667     0.575843333333     0.250000000000   
O      0.290720000000     0.581440000000     0.315350000000   
O      0.032263333333     0.634403333333     0.442400000000   
O      0.290546666667     0.581093333333     0.435740000000   
Si     0.141986666667     0.365206666667     0.874940000000   
Si     0.078116666667     0.666623333333     0.800880000000   
Si     0.078250000000     0.333493333333     0.949080000000   
O      0.156360000000     0.411513333333     0.875150000000   
O      0.115996666667     0.345030000000     0.831440000000   
O      0.179433333333     0.358866666667     0.874880000000   
O      0.115870000000     0.344710000000     0.918270000000   
O      0.064586666667     0.365626666667     0.806560000000   
O      0.089286666667     0.665130000000     0.750000000000   
O      0.042613333333     0.624053333333     0.815350000000   
O      0.064526666667     0.365596666667     0.942400000000   
O      0.042786666667     0.623880000000     0.935740000000   
Si     0.110113333333     0.475320000000     0.374940000000   
Si     0.078160000000     0.411450000000     0.300880000000   
Si     0.078090000000     0.411583333333     0.449080000000   
O      0.078180000000     0.489693333333     0.375150000000   
O      0.104300000000     0.449330000000     0.331440000000   
O      0.153900000000     0.512766666667     0.374880000000   
O      0.104493333333     0.449203333333     0.418270000000   
O      0.032293333333     0.397920000000     0.306560000000   
O      0.090823333333     0.422620000000     0.250000000000   
O      0.085226666667     0.375946666667     0.315350000000   
O      0.032263333333     0.397860000000     0.442400000000   
O      0.085573333333     0.376120000000     0.435740000000   
Si     0.301460000000     0.443446666667     0.874940000000   
Si     0.000043333333     0.411493333333     0.800880000000   
Si     0.333173333333     0.411423333333     0.949080000000   
O      0.255153333333     0.411513333333     0.875150000000   
O      0.321636666667     0.437633333333     0.831440000000   
O      0.307800000000     0.487233333333     0.874880000000   
O      0.321956666667     0.437826666667     0.918270000000   
O      0.301040000000     0.365626666667     0.806560000000   
O      0.001536666667     0.424156666667     0.750000000000   
O      0.042613333333     0.418560000000     0.815350000000   
O      0.301070000000     0.365596666667     0.942400000000   
O      0.042786666667     0.418906666667     0.935740000000   
Si     0.301460000000     0.524680000000     0.874940000000   
Si     0.000043333333     0.588550000000     0.800880000000   
Si     0.333173333333     0.588416666667     0.949080000000   
O      0.321636666667     0.550670000000     0.831440000000   
O      0.321956666667     0.550796666667     0.918270000000   
O      0.000000000000     0.576630000000     0.000000000000   
Si     0.110113333333     0.634793333333     0.374940000000   
Si     0.078160000000     0.333376666667     0.300880000000   
Si     0.078090000000     0.666506666667     0.449080000000   
O      0.104300000000     0.654970000000     0.331440000000   
O      0.104493333333     0.655290000000     0.418270000000   
O      0.090036666667     0.333333333333     0.500000000000   
Si     0.141986666667     0.443446666667     0.874940000000   
Si     0.078116666667     0.411493333333     0.800880000000   
Si     0.078250000000     0.411423333333     0.949080000000   
O      0.115996666667     0.437633333333     0.831440000000   
O      0.115870000000     0.437826666667     0.918270000000   
O      0.090036666667     0.423370000000     0.000000000000   
Si     0.031873333333     0.475320000000     0.374940000000   
Si     0.333290000000     0.411450000000     0.300880000000   
Si     0.000160000000     0.411583333333     0.449080000000   
O      0.011696666667     0.449330000000     0.331440000000   
O      0.011376666667     0.449203333333     0.418270000000   
O      0.000000000000     0.423370000000     0.500000000000   
Si     0.223220000000     0.365206666667     0.874940000000   
Si     0.255173333333     0.666623333333     0.800880000000   
Si     0.255243333333     0.333493333333     0.949080000000   
O      0.229033333333     0.345030000000     0.831440000000   
O      0.228840000000     0.344710000000     0.918270000000   
O      0.243296666667     0.333333333333     0.000000000000   
Si     0.191346666667     0.556553333333     0.374940000000   
Si     0.255216666667     0.588506666667     0.300880000000   
Si     0.255083333333     0.588576666667     0.449080000000   
O      0.217336666667     0.562366666667     0.331440000000   
O      0.217463333333     0.562173333333     0.418270000000   
O      0.243296666667     0.576630000000     0.500000000000   
Si     0.141986666667     0.365206666667     0.625060000000   
Si     0.078116666667     0.666623333333     0.699120000000   
Si     0.078250000000     0.333493333333     0.550920000000   
O      0.115996666667     0.345030000000     0.668560000000   
O      0.115870000000     0.344710000000     0.581730000000   
Si     0.110113333333     0.475320000000     0.125060000000   
Si     0.078160000000     0.411450000000     0.199120000000   
Si     0.078090000000     0.411583333333     0.050920000000   
O      0.104300000000     0.449330000000     0.168560000000   
O      0.104493333333     0.449203333333     0.081730000000   
Si     0.301460000000     0.443446666667     0.625060000000   
Si     0.000043333333     0.411493333333     0.699120000000   
Si     0.333173333333     0.411423333333     0.550920000000   
O      0.321636666667     0.437633333333     0.668560000000   
O      0.321956666667     0.437826666667     0.581730000000   
Si     0.191346666667     0.634793333333     0.125060000000   
Si     0.255216666667     0.333376666667     0.199120000000   
Si     0.255083333333     0.666506666667     0.050920000000   
O      0.217336666667     0.654970000000     0.168560000000   
O      0.217463333333     0.655290000000     0.081730000000   
Si     0.223220000000     0.524680000000     0.625060000000   
Si     0.255173333333     0.588550000000     0.699120000000   
Si     0.255243333333     0.588416666667     0.550920000000   
O      0.229033333333     0.550670000000     0.668560000000   
O      0.228840000000     0.550796666667     0.581730000000   
Si     0.031873333333     0.556553333333     0.125060000000   
Si     0.333290000000     0.588506666667     0.199120000000   
Si     0.000160000000     0.588576666667     0.050920000000   
O      0.011696666667     0.562366666667     0.168560000000   
O      0.011376666667     0.562173333333     0.081730000000   
Si     0.031873333333     0.808653333333     0.125060000000   
Si     0.333290000000     0.744783333333     0.199120000000   
Si     0.000160000000     0.744916666667     0.050920000000   
O      0.078180000000     0.823026666667     0.124850000000   
O      0.011696666667     0.782663333333     0.168560000000   
O      0.025533333333     0.846100000000     0.125120000000   
O      0.011376666667     0.782536666667     0.081730000000   
O      0.032293333333     0.731253333333     0.193440000000   
O      0.331796666667     0.755953333333     0.250000000000   
O      0.290720000000     0.709280000000     0.184650000000   
O      0.032263333333     0.731193333333     0.057600000000   
O      0.000000000000     0.756703333333     0.000000000000   
O      0.290546666667     0.709453333333     0.064260000000   
Si     0.223220000000     0.698540000000     0.625060000000   
Si     0.255173333333     0.999956666667     0.699120000000   
Si     0.255243333333     0.666826666667     0.550920000000   
O      0.255153333333     0.744846666667     0.624850000000   
O      0.229033333333     0.678363333333     0.668560000000   
O      0.179433333333     0.692200000000     0.625120000000   
O      0.228840000000     0.678043333333     0.581730000000   
O      0.301040000000     0.698960000000     0.693440000000   
O      0.242510000000     0.998463333333     0.750000000000   
O      0.248106666667     0.957386666667     0.684650000000   
O      0.301070000000     0.698930000000     0.557600000000   
O      0.243296666667     0.666666666667     0.500000000000   
O      0.247760000000     0.957213333333     0.564260000000   
Si     0.191346666667     0.889886666667     0.125060000000   
Si     0.255216666667     0.921840000000     0.199120000000   
Si     0.255083333333     0.921910000000     0.050920000000   
O      0.176973333333     0.921820000000     0.124850000000   
O      0.217336666667     0.895700000000     0.168560000000   
O      0.153900000000     0.846100000000     0.125120000000   
O      0.217463333333     0.895506666667     0.081730000000   
O      0.268746666667     0.967706666667     0.193440000000   
O      0.244046666667     0.909176666667     0.250000000000   
O      0.290720000000     0.914773333333     0.184650000000   
O      0.268806666667     0.967736666667     0.057600000000   
O      0.243296666667     0.909963333333     0.000000000000   
O      0.290546666667     0.914426666667     0.064260000000   
Si     0.301460000000     0.858013333333     0.625060000000   