%BLOCK LATTICE_CART
ang    # angstrom units
  21.233000000000    0.000000000000     0.000000000000   
  0.000000000000     13.302000000000    0.000000000000   
  0.000000000000     0.000000000000     12.676000000000  
%ENDBLOCK LATTICE_CART

%BLOCK POSITIONS_FRAC
O      0.049500000000     0.086150000000     0.034566666667   
O      0.000000000000     0.055000000000     0.000000000000   
O      0.051100000000     0.000000000000     0.000000000000   
O      0.045650000000     0.063400000000     0.166666666667   
O      0.039750000000     0.000000000000     0.114100000000   
O      0.059050000000     0.092350000000     0.102500000000   
O      0.000000000000     0.075150000000     0.120600000000   
O      0.105000000000     0.063150000000     0.060400000000   
O      0.086100000000     0.157150000000     0.059600000000   
O      0.149700000000     0.000000000000     0.042066666667   
O      0.134450000000     0.074550000000     0.000000000000   
Si     0.036000000000     0.057800000000     0.125900000000   
Si     0.075000000000     0.099700000000     0.064433333333   
Si     0.138250000000     0.057650000000     0.040433333333   
Si     0.037800000000     0.056750000000     0.000000000000   
O      0.450500000000     0.413850000000     0.034566666667   
O      0.000000000000     0.445000000000     0.000000000000   
O      0.448900000000     0.000000000000     0.000000000000   
O      0.454350000000     0.436600000000     0.166666666667   
O      0.460250000000     0.000000000000     0.114100000000   
O      0.440950000000     0.407650000000     0.102500000000   
O      0.000000000000     0.424850000000     0.120600000000   
O      0.395000000000     0.436850000000     0.060400000000   
O      0.413900000000     0.342850000000     0.059600000000   
O      0.350300000000     0.000000000000     0.042066666667   
O      0.365550000000     0.425450000000     0.000000000000   
Si     0.464000000000     0.442200000000     0.125900000000   
Si     0.425000000000     0.400300000000     0.064433333333   
Si     0.361750000000     0.442350000000     0.040433333333   
Si     0.462200000000     0.443250000000     0.000000000000   
O      0.049500000000     0.413850000000     0.298766666667   
O      0.045650000000     0.436600000000     0.166666666667   
O      0.039750000000     0.000000000000     0.219233333333   
O      0.059050000000     0.407650000000     0.230833333333   
O      0.000000000000     0.424850000000     0.212733333333   
O      0.105000000000     0.436850000000     0.272933333333   
O      0.086100000000     0.342850000000     0.273733333333   
O      0.149700000000     0.000000000000     0.291266666667   
O      0.134450000000     0.425450000000     0.000000000000   
Si     0.036000000000     0.442200000000     0.207433333333   
Si     0.075000000000     0.400300000000     0.268900000000   
Si     0.138250000000     0.442350000000     0.292900000000   
Si     0.037800000000     0.443250000000     0.000000000000   
O      0.450500000000     0.086150000000     0.298766666667   
O      0.454350000000     0.063400000000     0.166666666667   
O      0.460250000000     0.000000000000     0.219233333333   
O      0.440950000000     0.092350000000     0.230833333333   
O      0.000000000000     0.075150000000     0.212733333333   
O      0.395000000000     0.063150000000     0.272933333333   
O      0.413900000000     0.157150000000     0.273733333333   
O      0.350300000000     0.000000000000     0.291266666667   
O      0.365550000000     0.074550000000     0.000000000000   
Si     0.464000000000     0.057800000000     0.207433333333   
Si     0.425000000000     0.099700000000     0.268900000000   
Si     0.361750000000     0.057650000000     0.292900000000   
Si     0.462200000000     0.056750000000     0.000000000000   
O      0.450500000000     0.413850000000     0.298766666667   
O      0.440950000000     0.407650000000     0.230833333333   
O      0.395000000000     0.436850000000     0.272933333333   
O      0.413900000000     0.342850000000     0.273733333333   
Si     0.464000000000     0.442200000000     0.207433333333   
Si     0.425000000000     0.400300000000     0.268900000000   
Si     0.361750000000     0.442350000000     0.292900000000   
O      0.049500000000     0.086150000000     0.298766666667   
O      0.059050000000     0.092350000000     0.230833333333   
O      0.105000000000     0.063150000000     0.272933333333   
O      0.086100000000     0.157150000000     0.273733333333   
Si     0.036000000000     0.057800000000     0.207433333333   
Si     0.075000000000     0.099700000000     0.268900000000   
Si     0.138250000000     0.057650000000     0.292900000000   
O      0.450500000000     0.086150000000     0.034566666667   
O      0.440950000000     0.092350000000     0.102500000000   
O      0.395000000000     0.063150000000     0.060400000000   
O      0.413900000000     0.157150000000     0.059600000000   
Si     0.464000000000     0.057800000000     0.125900000000   
Si     0.425000000000     0.099700000000     0.064433333333   
Si     0.361750000000     0.057650000000     0.040433333333   
O      0.049500000000     0.413850000000     0.034566666667   
O      0.059050000000     0.407650000000     0.102500000000   
O      0.105000000000     0.436850000000     0.060400000000   
O      0.086100000000     0.342850000000     0.059600000000   
Si     0.036000000000     0.442200000000     0.125900000000   
Si     0.075000000000     0.400300000000     0.064433333333   
Si     0.138250000000     0.442350000000     0.040433333333   
O      0.299500000000     0.336150000000     0.034566666667   
O      0.250000000000     0.305000000000     0.000000000000   
O      0.301100000000     0.250000000000     0.000000000000   
O      0.295650000000     0.313400000000     0.166666666667   
O      0.289750000000     0.250000000000     0.114100000000   
O      0.309050000000     0.342350000000     0.102500000000   
O      0.250000000000     0.325150000000     0.120600000000   
O      0.355000000000     0.313150000000     0.060400000000   
O      0.336100000000     0.407150000000     0.059600000000   
O      0.399700000000     0.250000000000     0.042066666667   
O      0.384450000000     0.324550000000     0.000000000000   
Si     0.286000000000     0.307800000000     0.125900000000   
Si     0.325000000000     0.349700000000     0.064433333333   
Si     0.388250000000     0.307650000000     0.040433333333   
Si     0.287800000000     0.306750000000     0.000000000000   
O      0.200500000000     0.163850000000     0.034566666667   
O      0.250000000000     0.195000000000     0.000000000000   
O      0.198900000000     0.250000000000     0.000000000000   
O      0.204350000000     0.186600000000     0.166666666667   
O      0.210250000000     0.250000000000     0.114100000000   
O      0.190950000000     0.157650000000     0.102500000000   
O      0.250000000000     0.174850000000     0.120600000000   
O      0.145000000000     0.186850000000     0.060400000000   
O      0.163900000000     0.092850000000     0.059600000000   
O      0.100300000000     0.250000000000     0.042066666667   
O      0.115550000000     0.175450000000     0.000000000000   
Si     0.214000000000     0.192200000000     0.125900000000   
Si     0.175000000000     0.150300000000     0.064433333333   
Si     0.111750000000     0.192350000000     0.040433333333   
Si     0.212200000000     0.193250000000     0.000000000000   
O      0.299500000000     0.163850000000     0.298766666667   
O      0.295650000000     0.186600000000     0.166666666667   
O      0.289750000000     0.250000000000     0.219233333333   
O      0.309050000000     0.157650000000     0.230833333333   
O      0.250000000000     0.174850000000     0.212733333333   
O      0.355000000000     0.186850000000     0.272933333333   
O      0.336100000000     0.092850000000     0.273733333333   
O      0.399700000000     0.250000000000     0.291266666667   
O      0.384450000000     0.175450000000     0.000000000000   
Si     0.286000000000     0.192200000000     0.207433333333   
Si     0.325000000000     0.150300000000     0.268900000000   
Si     0.388250000000     0.192350000000     0.292900000000   
Si     0.287800000000     0.193250000000     0.000000000000   
O      0.200500000000     0.336150000000     0.298766666667   
O      0.204350000000     0.313400000000     0.166666666667   
O      0.210250000000     0.250000000000     0.219233333333   
O      0.190950000000     0.342350000000     0.230833333333   
O      0.250000000000     0.325150000000     0.212733333333   
O      0.145000000000     0.313150000000     0.272933333333   
O      0.163900000000     0.407150000000     0.273733333333   
O      0.100300000000     0.250000000000     0.291266666667   
O      0.115550000000     0.324550000000     0.000000000000   
Si     0.214000000000     0.307800000000     0.207433333333   
Si     0.175000000000     0.349700000000     0.268900000000   
Si     0.111750000000     0.307650000000     0.292900000000   
Si     0.212200000000     0.306750000000     0.000000000000   
O      0.200500000000     0.163850000000     0.298766666667   
O      0.190950000000     0.157650000000     0.230833333333   
O      0.145000000000     0.186850000000     0.272933333333   
O      0.163900000000     0.092850000000     0.273733333333   
Si     0.214000000000     0.192200000000     0.207433333333   
Si     0.175000000000     0.150300000000     0.268900000000   
Si     0.111750000000     0.192350000000     0.292900000000   
O      0.299500000000     0.336150000000     0.298766666667   
O      0.309050000000     0.342350000000     0.230833333333   
O      0.355000000000     0.313150000000     0.272933333333   
O      0.336100000000     0.407150000000     0.273733333333   
Si     0.286000000000     0.307800000000     0.207433333333   
Si     0.325000000000     0.349700000000     0.268900000000   
Si     0.388250000000     0.307650000000     0.292900000000   
O      0.200500000000     0.336150000000     0.034566666667   
O      0.190950000000     0.342350000000     0.102500000000   
O      0.145000000000     0.313150000000     0.060400000000   
O      0.163900000000     0.407150000000     0.059600000000   
Si     0.214000000000     0.307800000000     0.125900000000   
Si     0.175000000000     0.349700000000     0.064433333333   
Si     0.111750000000     0.307650000000     0.040433333333   
O      0.299500000000     0.163850000000     0.034566666667   
O      0.309050000000     0.157650000000     0.102500000000   
O      0.355000000000     0.186850000000     0.060400000000   
O      0.336100000000     0.092850000000     0.059600000000   
Si     0.286000000000     0.192200000000     0.125900000000   
Si     0.325000000000     0.150300000000     0.064433333333   
Si     0.388250000000     0.192350000000     0.040433333333   
O      0.049500000000     0.086150000000     0.367900000000   
O      0.000000000000     0.055000000000     0.333333333333   
O      0.051100000000     0.000000000000     0.333333333333   
O      0.045650000000     0.063400000000     0.500000000000   
O      0.039750000000     0.000000000000     0.447433333333   
O      0.059050000000     0.092350000000     0.435833333333   
O      0.000000000000     0.075150000000     0.453933333333   
O      0.105000000000     0.063150000000     0.393733333333   
O      0.086100000000     0.157150000000     0.392933333333   
O      0.149700000000     0.000000000000     0.375400000000   
O      0.134450000000     0.074550000000     0.333333333333   
Si     0.036000000000     0.057800000000     0.459233333333   
Si     0.075000000000     0.099700000000     0.397766666667   
Si     0.138250000000     0.057650000000     0.373766666667   
Si     0.037800000000     0.056750000000     0.333333333333   
O      0.450500000000     0.413850000000     0.367900000000   
O      0.000000000000     0.445000000000     0.333333333333   
O      0.448900000000     0.000000000000     0.333333333333   
O      0.454350000000     0.436600000000     0.500000000000   
O      0.460250000000     0.000000000000     0.447433333333   
O      0.440950000000     0.407650000000     0.435833333333   
O      0.000000000000     0.424850000000     0.453933333333   
O      0.395000000000     0.436850000000     0.393733333333   
O      0.413900000000     0.342850000000     0.392933333333   
O      0.350300000000     0.000000000000     0.375400000000   
O      0.365550000000     0.425450000000     0.333333333333   
Si     0.464000000000     0.442200000000     0.459233333333   
Si     0.425000000000     0.400300000000     0.397766666667   
Si     0.361750000000     0.442350000000     0.373766666667   
Si     0.462200000000     0.443250000000     0.333333333333   
O      0.049500000000     0.413850000000     0.632100000000   
O      0.045650000000     0.436600000000     0.500000000000   
O      0.039750000000     0.000000000000     0.552566666667   
O      0.059050000000     0.407650000000     0.564166666667   
O      0.000000000000     0.424850000000     0.546066666667   
O      0.105000000000     0.436850000000     0.606266666667   
O      0.086100000000     0.342850000000     0.607066666667   
O      0.149700000000     0.000000000000     0.624600000000   
O      0.134450000000     0.425450000000     0.333333333333   
Si     0.036000000000     0.442200000000     0.540766666667   
Si     0.075000000000     0.400300000000     0.602233333333   
Si     0.138250000000     0.442350000000     0.626233333333   
Si     0.037800000000     0.443250000000     0.333333333333   
O      0.450500000000     0.086150000000     0.632100000000   
O      0.454350000000     0.063400000000     0.500000000000   
O      0.460250000000     0.000000000000     0.552566666667   
O      0.440950000000     0.092350000000     0.564166666667   
O      0.000000000000     0.075150000000     0.546066666667   
O      0.395000000000     0.063150000000     0.606266666667   
O      0.413900000000     0.157150000000     0.607066666667   
O      0.350300000000     0.000000000000     0.624600000000   
O      0.365550000000     0.074550000000     0.333333333333   
Si     0.464000000000     0.057800000000     0.540766666667   
Si     0.425000000000     0.099700000000     0.602233333333   
Si     0.361750000000     0.057650000000     0.626233333333   
Si     0.462200000000     0.056750000000     0.333333333333   
O      0.450500000000     0.413850000000     0.632100000000   
O      0.440950000000     0.407650000000     0.564166666667   
O      0.395000000000     0.436850000000     0.606266666667   
O      0.413900000000     0.342850000000     0.607066666667   
Si     0.464000000000     0.442200000000     0.540766666667   
Si     0.425000000000     0.400300000000     0.602233333333   
Si     0.361750000000     0.442350000000     0.626233333333   
O      0.049500000000     0.086150000000     0.632100000000   
O      0.059050000000     0.092350000000     0.564166666667   
O      0.105000000000     0.063150000000     0.606266666667   
O      0.086100000000     0.157150000000     0.607066666667   
Si     0.036000000000     0.057800000000     0.540766666667   
Si     0.075000000000     0.099700000000     0.602233333333   
Si     0.138250000000     0.057650000000     0.626233333333   
O      0.450500000000     0.086150000000     0.367900000000   
O      0.440950000000     0.092350000000     0.435833333333   
O      0.395000000000     0.063150000000     0.393733333333   
O      0.413900000000     0.157150000000     0.392933333333   
Si     0.464000000000     0.057800000000     0.459233333333   
Si     0.425000000000     0.099700000000     0.397766666667   
Si     0.361750000000     0.057650000000     0.373766666667   
O      0.049500000000     0.413850000000     0.367900000000   
O      0.059050000000     0.407650000000     0.435833333333   
O      0.105000000000     0.436850000000     0.393733333333   
O      0.086100000000     0.342850000000     0.392933333333   
Si     0.036000000000     0.442200000000     0.459233333333   
Si     0.075000000000     0.400300000000     0.397766666667   
Si     0.138250000000     0.442350000000     0.373766666667   
O      0.299500000000     0.336150000000     0.367900000000   
O      0.250000000000     0.305000000000     0.333333333333   
O      0.301100000000     0.250000000000     0.333333333333   
O      0.295650000000     0.313400000000     0.500000000000   
O      0.289750000000     0.250000000000     0.447433333333   
O      0.309050000000     0.342350000000     0.435833333333   
O      0.250000000000     0.325150000000     0.453933333333   
O      0.355000000000     0.313150000000     0.393733333333   
O      0.336100000000     0.407150000000     0.392933333333   
O      0.399700000000     0.250000000000     0.375400000000   
O      0.384450000000     0.324550000000     0.333333333333   
Si     0.286000000000     0.307800000000     0.459233333333   
Si     0.325000000000     0.349700000000     0.397766666667   
Si     0.388250000000     0.307650000000     0.373766666667   
Si     0.287800000000     0.306750000000     0.333333333333   
O      0.200500000000     0.163850000000     0.367900000000   
O      0.250000000000     0.195000000000     0.333333333333   
O      0.198900000000     0.250000000000     0.333333333333   
O      0.204350000000     0.186600000000     0.500000000000   
O      0.210250000000     0.250000000000     0.447433333333   
O      0.190950000000     0.157650000000     0.435833333333   
O      0.250000000000     0.174850000000     0.453933333333   
O      0.145000000000     0.186850000000     0.393733333333   
O      0.163900000000     0.092850000000     0.392933333333   
O      0.100300000000     0.250000000000     0.375400000000   
O      0.115550000000     0.175450000000     0.333333333333   
Si     0.214000000000     0.192200000000     0.459233333333   
Si     0.175000000000     0.150300000000     0.397766666667   
Si     0.111750000000     0.192350000000     0.373766666667   
Si     0.212200000000     0.193250000000     0.333333333333   
O      0.299500000000     0.163850000000     0.632100000000   
O      0.295650000000     0.186600000000     0.500000000000   
O      0.289750000000     0.250000000000     0.552566666667   
O      0.309050000000     0.157650000000     0.564166666667   
O      0.250000000000     0.174850000000     0.546066666667   
O      0.355000000000     0.186850000000     0.606266666667   
O      0.336100000000     0.092850000000     0.607066666667   
O      0.399700000000     0.250000000000     0.624600000000   
O      0.384450000000     0.175450000000     0.333333333333   
Si     0.286000000000     0.192200000000     0.540766666667   
Si     0.325000000000     0.150300000000     0.602233333333   
Si     0.388250000000     0.192350000000     0.626233333333   
Si     0.287800000000     0.193250000000     0.333333333333   
O      0.200500000000     0.336150000000     0.632100000000   
O      0.204350000000     0.313400000000     0.500000000000   
O      0.210250000000     0.250000000000     0.552566666667   
O      0.190950000000     0.342350000000     0.564166666667   
O      0.250000000000     0.325150000000     0.546066666667   
O      0.145000000000     0.313150000000     0.606266666667   
O      0.163900000000     0.407150000000     0.607066666667   
O      0.100300000000     0.250000000000     0.624600000000   
O      0.115550000000     0.324550000000     0.333333333333   
Si     0.214000000000     0.307800000000     0.540766666667   
Si     0.175000000000     0.349700000000     0.602233333333   
Si     0.111750000000     0.307650000000     0.626233333333   
Si     0.212200000000     0.306750000000     0.333333333333   
O      0.200500000000     0.163850000000     0.632100000000   
O      0.190950000000     0.157650000000     0.564166666667   
O      0.145000000000     0.186850000000     0.606266666667   
O      0.163900000000     0.092850000000     0.607066666667   
Si     0.214000000000     0.192200000000     0.540766666667   
Si     0.175000000000     0.150300000000     0.602233333333   
Si     0.111750000000     0.192350000000     0.626233333333   
O      0.299500000000     0.336150000000     0.632100000000   
O      0.309050000000     0.342350000000     0.564166666667   
O      0.355000000000     0.313150000000     0.606266666667   
O      0.336100000000     0.407150000000     0.607066666667   
Si     0.286000000000     0.307800000000     0.540766666667   
Si     0.325000000000     0.349700000000     0.602233333333   
Si     0.388250000000     0.307650000000     0.626233333333   
O      0.200500000000     0.336150000000     0.367900000000   
O      0.190950000000     0.342350000000     0.435833333333   
O      0.145000000000     0.313150000000     0.393733333333   
O      0.163900000000     0.407150000000     0.392933333333   
Si     0.214000000000     0.307800000000     0.459233333333   
Si     0.175000000000     0.349700000000     0.397766666667   
Si     0.111750000000     0.307650000000     0.373766666667   
O      0.299500000000     0.163850000000     0.367900000000   
O      0.309050000000     0.157650000000     0.435833333333   
O      0.355000000000     0.186850000000     0.393733333333   
O      0.336100000000     0.092850000000     0.392933333333   
Si     0.286000000000     0.192200000000     0.459233333333   
Si     0.325000000000     0.150300000000     0.397766666667   
Si     0.388250000000     0.192350000000     0.373766666667   
O      0.049500000000     0.086150000000     0.701233333333   
O      0.000000000000     0.055000000000     0.666666666667   
O      0.051100000000     0.000000000000     0.666666666667   
O      0.045650000000     0.063400000000     0.833333333333   
O      0.039750000000     0.000000000000     0.780766666667   
O      0.059050000000     0.092350000000     0.769166666667   
O      0.000000000000     0.075150000000     0.787266666667   
O      0.105000000000     0.063150000000     0.727066666667   
O      0.086100000000     0.157150000000     0.726266666667   
O      0.149700000000     0.000000000000     0.708733333333   
O      0.134450000000     0.074550000000     0.666666666667   
Si     0.036000000000     0.057800000000     0.792566666667   
Si     0.075000000000     0.099700000000     0.731100000000   
Si     0.138250000000     0.057650000000     0.707100000000   
Si     0.037800000000     0.056750000000     0.666666666667   
O      0.450500000000     0.413850000000     0.701233333333   
O      0.000000000000     0.445000000000     0.666666666667   
O      0.448900000000     0.000000000000     0.666666666667   
O      0.454350000000     0.436600000000     0.833333333333   
O      0.460250000000     0.000000000000     0.780766666667   
O      0.440950000000     0.407650000000     0.769166666667   
O      0.000000000000     0.424850000000     0.787266666667   
O      0.395000000000     0.436850000000     0.727066666667   
O      0.413900000000     0.342850000000     0.726266666667   
O      0.350300000000     0.000000000000     0.708733333333   
O      0.365550000000     0.425450000000     0.666666666667   
Si     0.464000000000     0.442200000000     0.792566666667   
Si     0.425000000000     0.400300000000     0.731100000000   
Si     0.361750000000     0.442350000000     0.707100000000   
Si     0.462200000000     0.443250000000     0.666666666667   
O      0.049500000000     0.413850000000     0.965433333333   
O      0.045650000000     0.436600000000     0.833333333333   
O      0.039750000000     0.000000000000     0.885900000000   
O      0.059050000000     0.407650000000     0.897500000000   
O      0.000000000000     0.424850000000     0.879400000000   
O      0.105000000000     0.436850000000     0.939600000000   
O      0.086100000000     0.342850000000     0.940400000000   
O      0.149700000000     0.000000000000     0.957933333333   
O      0.134450000000     0.425450000000     0.666666666667   
Si     0.036000000000     0.442200000000     0.874100000000   
Si     0.075000000000     0.400300000000     0.935566666667   
Si     0.138250000000     0.442350000000     0.959566666667   
Si     0.037800000000     0.443250000000     0.666666666667   
O      0.450500000000     0.086150000000     0.965433333333   
O      0.454350000000     0.063400000000     0.833333333333   
O      0.460250000000     0.000000000000     0.885900000000   
O      0.440950000000     0.092350000000     0.897500000000   
O      0.000000000000     0.075150000000     0.879400000000   
O      0.395000000000     0.063150000000     0.939600000000   
O      0.413900000000     0.157150000000     0.940400000000   
O      0.350300000000     0.000000000000     0.957933333333   
O      0.365550000000     0.074550000000     0.666666666667   
Si     0.464000000000     0.057800000000     0.874100000000   
Si     0.425000000000     0.099700000000     0.935566666667   
Si     0.361750000000     0.057650000000     0.959566666667   
Si     0.462200000000     0.056750000000     0.666666666667   
O      0.450500000000     0.413850000000     0.965433333333   
O      0.440950000000     0.407650000000     0.897500000000   
O      0.395000000000     0.436850000000     0.939600000000   
O      0.413900000000     0.342850000000     0.940400000000   
Si     0.464000000000     0.442200000000     0.874100000000   
Si     0.425000000000     0.400300000000     0.935566666667   
Si     0.361750000000     0.442350000000     0.959566666667   
O      0.049500000000     0.086150000000     0.965433333333   
O      0.059050000000     0.092350000000     0.897500000000   
O      0.105000000000     0.063150000000     0.939600000000   
O      0.086100000000     0.157150000000     0.940400000000   
Si     0.036000000000     0.057800000000     0.874100000000   
Si     0.075000000000     0.099700000000     0.935566666667   
Si     0.138250000000     0.057650000000     0.959566666667   
O      0.450500000000     0.086150000000     0.701233333333   
O      0.440950000000     0.092350000000     0.769166666667   
O      0.395000000000     0.063150000000     0.727066666667   
O      0.413900000000     0.157150000000     0.726266666667   
Si     0.464000000000     0.057800000000     0.792566666667   
Si     0.425000000000     0.099700000000     0.731100000000   
Si     0.361750000000     0.057650000000     0.707100000000   
O      0.049500000000     0.413850000000     0.701233333333   
O      0.059050000000     0.407650000000     0.769166666667   
O      0.105000000000     0.436850000000     0.727066666667   
O      0.086100000000     0.342850000000     0.726266666667   
Si     0.036000000000     0.442200000000     0.792566666667   
Si     0.075000000000     0.400300000000     0.731100000000   
Si     0.138250000000     0.442350000000     0.707100000000   
O      0.299500000000     0.336150000000     0.701233333333   
O      0.250000000000     0.305000000000     0.666666666667   
O      0.301100000000     0.250000000000     0.666666666667   
O      0.295650000000     0.313400000000     0.833333333333   
O      0.289750000000     0.250000000000     0.780766666667   
O      0.309050000000     0.342350000000     0.769166666667   
O      0.250000000000     0.325150000000     0.787266666667   
O      0.355000000000     0.313150000000     0.727066666667   
O      0.336100000000     0.407150000000     0.726266666667   
O      0.399700000000     0.250000000000     0.708733333333   
O      0.384450000000     0.324550000000     0.666666666667   
Si     0.286000000000     0.307800000000     0.792566666667   
Si     0.325000000000     0.349700000000     0.731100000000   
Si     0.388250000000     0.307650000000     0.707100000000   
Si     0.287800000000     0.306750000000     0.666666666667   
O      0.200500000000     0.163850000000     0.701233333333   
O      0.250000000000     0.195000000000     0.666666666667   
O      0.198900000000     0.250000000000     0.666666666667   
O      0.204350000000     0.186600000000     0.833333333333   
O      0.210250000000     0.250000000000     0.780766666667   
O      0.190950000000     0.157650000000     0.769166666667   
O      0.250000000000     0.174850000000     0.787266666667   
O      0.145000000000     0.186850000000     0.727066666667   
O      0.163900000000     0.092850000000     0.726266666667   
O      0.100300000000     0.250000000000     0.708733333333   
O      0.115550000000     0.175450000000     0.666666666667   
Si     0.214000000000     0.192200000000     0.792566666667   
Si     0.175000000000     0.150300000000     0.731100000000   
Si     0.111750000000     0.192350000000     0.707100000000   
Si     0.212200000000     0.193250000000     0.666666666667   
O      0.299500000000     0.163850000000     0.965433333333   
O      0.295650000000     0.186600000000     0.833333333333   
O      0.289750000000     0.250000000000     0.885900000000   
O      0.309050000000     0.157650000000     0.897500000000   
O      0.250000000000     0.174850000000     0.879400000000   
O      0.355000000000     0.186850000000     0.939600000000   
O      0.336100000000     0.092850000000     0.940400000000   
O      0.399700000000     0.250000000000     0.957933333333   
O      0.384450000000     0.175450000000     0.666666666667   
Si     0.286000000000     0.192200000000     0.874100000000   
Si     0.325000000000     0.150300000000     0.935566666667   
Si     0.388250000000     0.192350000000     0.959566666667   
Si     0.287800000000     0.193250000000     0.666666666667   
O      0.200500000000     0.336150000000     0.965433333333   
O      0.204350000000     0.313400000000     0.833333333333   
O      0.210250000000     0.250000000000     0.885900000000   
O      0.190950000000     0.342350000000     0.897500000000   
O      0.250000000000     0.325150000000     0.879400000000   
O      0.145000000000     0.313150000000     0.939600000000   
O      0.163900000000     0.407150000000     0.940400000000   
O      0.100300000000     0.250000000000     0.957933333333   
O      0.115550000000     0.324550000000     0.666666666667   