%BLOCK LATTICE_CART
ang    # angstrom units
  16.438820000000    0.000000000000     0.000000000000   
  0.000000000000     4.945300000000     0.000000000000   
  0.000000000000     0.000000000000     22.783030000000  
%ENDBLOCK LATTICE_CART

%BLOCK POSITIONS_FRAC
Si     0.222565000000     0.043883333333     0.127055000000   
Si     0.138180000000     0.018230000000     0.142880000000   
Si     0.296015000000     0.014801666667     0.034495000000   
Si     0.176770000000     0.066115000000     0.067640000000   
O      0.205180000000     0.062343333333     0.096285000000   
O      0.250000000000     0.000000000000     0.121050000000   
O      0.250000000000     0.083333333333     0.141220000000   
O      0.185140000000     0.031283333333     0.148325000000   
O      0.135775000000     0.145448333333     0.118670000000   
O      0.117535000000     0.000728333333     0.172845000000   
O      0.250000000000     0.000000000000     0.041600000000   
O      0.326740000000     0.149496666667     0.052555000000   
O      0.302990000000     0.066261666667     0.044480000000   
O      0.305200000000     0.009605000000     0.000000000000   
Si     0.277435000000     0.122783333333     0.127055000000   
Si     0.361820000000     0.148436666667     0.142880000000   
Si     0.203985000000     0.151865000000     0.034495000000   
Si     0.323230000000     0.100551666667     0.067640000000   
O      0.294820000000     0.104323333333     0.096285000000   
O      0.314860000000     0.135383333333     0.148325000000   
O      0.364225000000     0.021218333333     0.118670000000   
O      0.382465000000     0.165938333333     0.172845000000   
O      0.173260000000     0.017170000000     0.052555000000   
O      0.197010000000     0.100405000000     0.044480000000   
O      0.194800000000     0.157061666667     0.000000000000   
Si     0.472565000000     0.039450000000     0.122945000000   
Si     0.388180000000     0.065103333333     0.107120000000   
Si     0.046015000000     0.068531666667     0.215505000000   
Si     0.426770000000     0.017218333333     0.182360000000   
O      0.455180000000     0.020990000000     0.153715000000   
O      0.000000000000     0.083333333333     0.128950000000   
O      0.000000000000     0.000000000000     0.108780000000   
O      0.435140000000     0.052050000000     0.101675000000   
O      0.385775000000     0.104551666667     0.131330000000   
O      0.367535000000     0.082605000000     0.077155000000   
O      0.000000000000     0.083333333333     0.208400000000   
O      0.076740000000     0.100503333333     0.197445000000   
O      0.052990000000     0.017071666667     0.205520000000   
O      0.055200000000     0.073728333333     0.250000000000   
Si     0.027435000000     0.127216666667     0.122945000000   
Si     0.111820000000     0.101563333333     0.107120000000   
Si     0.453985000000     0.098135000000     0.215505000000   
Si     0.073230000000     0.149448333333     0.182360000000   
O      0.044820000000     0.145676666667     0.153715000000   
O      0.064860000000     0.114616666667     0.101675000000   
O      0.114225000000     0.062115000000     0.131330000000   
O      0.132465000000     0.084061666667     0.077155000000   
O      0.423260000000     0.066163333333     0.197445000000   
O      0.447010000000     0.149595000000     0.205520000000   
O      0.444800000000     0.092938333333     0.250000000000   
Si     0.277435000000     0.122783333333     0.372945000000   
Si     0.361820000000     0.148436666667     0.357120000000   
Si     0.203985000000     0.151865000000     0.465505000000   
Si     0.323230000000     0.100551666667     0.432360000000   
O      0.294820000000     0.104323333333     0.403715000000   
O      0.250000000000     0.000000000000     0.378950000000   
O      0.250000000000     0.083333333333     0.358780000000   
O      0.314860000000     0.135383333333     0.351675000000   
O      0.364225000000     0.021218333333     0.381330000000   
O      0.382465000000     0.165938333333     0.327155000000   
O      0.250000000000     0.000000000000     0.458400000000   
O      0.173260000000     0.017170000000     0.447445000000   
O      0.197010000000     0.100405000000     0.455520000000   
Si     0.222565000000     0.043883333333     0.372945000000   
Si     0.138180000000     0.018230000000     0.357120000000   
Si     0.296015000000     0.014801666667     0.465505000000   
Si     0.176770000000     0.066115000000     0.432360000000   
O      0.205180000000     0.062343333333     0.403715000000   
O      0.185140000000     0.031283333333     0.351675000000   
O      0.135775000000     0.145448333333     0.381330000000   
O      0.117535000000     0.000728333333     0.327155000000   
O      0.326740000000     0.149496666667     0.447445000000   
O      0.302990000000     0.066261666667     0.455520000000   
Si     0.027435000000     0.127216666667     0.377055000000   
Si     0.111820000000     0.101563333333     0.392880000000   
Si     0.453985000000     0.098135000000     0.284495000000   
Si     0.073230000000     0.149448333333     0.317640000000   
O      0.044820000000     0.145676666667     0.346285000000   
O      0.000000000000     0.083333333333     0.371050000000   
O      0.000000000000     0.000000000000     0.391220000000   
O      0.064860000000     0.114616666667     0.398325000000   
O      0.114225000000     0.062115000000     0.368670000000   
O      0.132465000000     0.084061666667     0.422845000000   
O      0.000000000000     0.083333333333     0.291600000000   
O      0.423260000000     0.066163333333     0.302555000000   
O      0.447010000000     0.149595000000     0.294480000000   
Si     0.472565000000     0.039450000000     0.377055000000   
Si     0.388180000000     0.065103333333     0.392880000000   
Si     0.046015000000     0.068531666667     0.284495000000   
Si     0.426770000000     0.017218333333     0.317640000000   
O      0.455180000000     0.020990000000     0.346285000000   
O      0.435140000000     0.052050000000     0.398325000000   
O      0.385775000000     0.104551666667     0.368670000000   
O      0.367535000000     0.082605000000     0.422845000000   
O      0.076740000000     0.100503333333     0.302555000000   
O      0.052990000000     0.017071666667     0.294480000000   
Si     0.222565000000     0.043883333333     0.627055000000   
Si     0.138180000000     0.018230000000     0.642880000000   
Si     0.296015000000     0.014801666667     0.534495000000   
Si     0.176770000000     0.066115000000     0.567640000000   
O      0.205180000000     0.062343333333     0.596285000000   
O      0.250000000000     0.000000000000     0.621050000000   
O      0.250000000000     0.083333333333     0.641220000000   
O      0.185140000000     0.031283333333     0.648325000000   
O      0.135775000000     0.145448333333     0.618670000000   
O      0.117535000000     0.000728333333     0.672845000000   
O      0.250000000000     0.000000000000     0.541600000000   
O      0.326740000000     0.149496666667     0.552555000000   
O      0.302990000000     0.066261666667     0.544480000000   
O      0.305200000000     0.009605000000     0.500000000000   
Si     0.277435000000     0.122783333333     0.627055000000   
Si     0.361820000000     0.148436666667     0.642880000000   
Si     0.203985000000     0.151865000000     0.534495000000   
Si     0.323230000000     0.100551666667     0.567640000000   
O      0.294820000000     0.104323333333     0.596285000000   
O      0.314860000000     0.135383333333     0.648325000000   
O      0.364225000000     0.021218333333     0.618670000000   
O      0.382465000000     0.165938333333     0.672845000000   
O      0.173260000000     0.017170000000     0.552555000000   
O      0.197010000000     0.100405000000     0.544480000000   
O      0.194800000000     0.157061666667     0.500000000000   
Si     0.472565000000     0.039450000000     0.622945000000   
Si     0.388180000000     0.065103333333     0.607120000000   
Si     0.046015000000     0.068531666667     0.715505000000   
Si     0.426770000000     0.017218333333     0.682360000000   
O      0.455180000000     0.020990000000     0.653715000000   
O      0.000000000000     0.083333333333     0.628950000000   
O      0.000000000000     0.000000000000     0.608780000000   
O      0.435140000000     0.052050000000     0.601675000000   
O      0.385775000000     0.104551666667     0.631330000000   
O      0.367535000000     0.082605000000     0.577155000000   
O      0.000000000000     0.083333333333     0.708400000000   
O      0.076740000000     0.100503333333     0.697445000000   
O      0.052990000000     0.017071666667     0.705520000000   
O      0.055200000000     0.073728333333     0.750000000000   
Si     0.027435000000     0.127216666667     0.622945000000   
Si     0.111820000000     0.101563333333     0.607120000000   
Si     0.453985000000     0.098135000000     0.715505000000   
Si     0.073230000000     0.149448333333     0.682360000000   
O      0.044820000000     0.145676666667     0.653715000000   
O      0.064860000000     0.114616666667     0.601675000000   
O      0.114225000000     0.062115000000     0.631330000000   
O      0.132465000000     0.084061666667     0.577155000000   
O      0.423260000000     0.066163333333     0.697445000000   
O      0.447010000000     0.149595000000     0.705520000000   
O      0.444800000000     0.092938333333     0.750000000000   
Si     0.277435000000     0.122783333333     0.872945000000   
Si     0.361820000000     0.148436666667     0.857120000000   
Si     0.203985000000     0.151865000000     0.965505000000   
Si     0.323230000000     0.100551666667     0.932360000000   
O      0.294820000000     0.104323333333     0.903715000000   
O      0.250000000000     0.000000000000     0.878950000000   
O      0.250000000000     0.083333333333     0.858780000000   
O      0.314860000000     0.135383333333     0.851675000000   
O      0.364225000000     0.021218333333     0.881330000000   
O      0.382465000000     0.165938333333     0.827155000000   
O      0.250000000000     0.000000000000     0.958400000000   
O      0.173260000000     0.017170000000     0.947445000000   
O      0.197010000000     0.100405000000     0.955520000000   
Si     0.222565000000     0.043883333333     0.872945000000   
Si     0.138180000000     0.018230000000     0.857120000000   
Si     0.296015000000     0.014801666667     0.965505000000   
Si     0.176770000000     0.066115000000     0.932360000000   
O      0.205180000000     0.062343333333     0.903715000000   
O      0.185140000000     0.031283333333     0.851675000000   
O      0.135775000000     0.145448333333     0.881330000000   
O      0.117535000000     0.000728333333     0.827155000000   
O      0.326740000000     0.149496666667     0.947445000000   
O      0.302990000000     0.066261666667     0.955520000000   
Si     0.027435000000     0.127216666667     0.877055000000   
Si     0.111820000000     0.101563333333     0.892880000000   
Si     0.453985000000     0.098135000000     0.784495000000   
Si     0.073230000000     0.149448333333     0.817640000000   
O      0.044820000000     0.145676666667     0.846285000000   
O      0.000000000000     0.083333333333     0.871050000000   
O      0.000000000000     0.000000000000     0.891220000000   
O      0.064860000000     0.114616666667     0.898325000000   
O      0.114225000000     0.062115000000     0.868670000000   
O      0.132465000000     0.084061666667     0.922845000000   
O      0.000000000000     0.083333333333     0.791600000000   
O      0.423260000000     0.066163333333     0.802555000000   
O      0.447010000000     0.149595000000     0.794480000000   
Si     0.472565000000     0.039450000000     0.877055000000   
Si     0.388180000000     0.065103333333     0.892880000000   
Si     0.046015000000     0.068531666667     0.784495000000   
Si     0.426770000000     0.017218333333     0.817640000000   
O      0.455180000000     0.020990000000     0.846285000000   
O      0.435140000000     0.052050000000     0.898325000000   
O      0.385775000000     0.104551666667     0.868670000000   
O      0.367535000000     0.082605000000     0.922845000000   
O      0.076740000000     0.100503333333     0.802555000000   
O      0.052990000000     0.017071666667     0.794480000000   
Si     0.222565000000     0.210550000000     0.127055000000   
Si     0.138180000000     0.184896666667     0.142880000000   
Si     0.296015000000     0.181468333333     0.034495000000   
Si     0.176770000000     0.232781666667     0.067640000000   
O      0.205180000000     0.229010000000     0.096285000000   
O      0.250000000000     0.166666666667     0.121050000000   
O      0.250000000000     0.250000000000     0.141220000000   
O      0.185140000000     0.197950000000     0.148325000000   
O      0.135775000000     0.312115000000     0.118670000000   
O      0.117535000000     0.167395000000     0.172845000000   
O      0.250000000000     0.166666666667     0.041600000000   
O      0.326740000000     0.316163333333     0.052555000000   
O      0.302990000000     0.232928333333     0.044480000000   
O      0.305200000000     0.176271666667     0.000000000000   
Si     0.277435000000     0.289450000000     0.127055000000   
Si     0.361820000000     0.315103333333     0.142880000000   
Si     0.203985000000     0.318531666667     0.034495000000   
Si     0.323230000000     0.267218333333     0.067640000000   
O      0.294820000000     0.270990000000     0.096285000000   
O      0.314860000000     0.302050000000     0.148325000000   
O      0.364225000000     0.187885000000     0.118670000000   
O      0.382465000000     0.332605000000     0.172845000000   
O      0.173260000000     0.183836666667     0.052555000000   
O      0.197010000000     0.267071666667     0.044480000000   
O      0.194800000000     0.323728333333     0.000000000000   
Si     0.472565000000     0.206116666667     0.122945000000   
Si     0.388180000000     0.231770000000     0.107120000000   
Si     0.046015000000     0.235198333333     0.215505000000   
Si     0.426770000000     0.183885000000     0.182360000000   
O      0.455180000000     0.187656666667     0.153715000000   
O      0.000000000000     0.250000000000     0.128950000000   
O      0.000000000000     0.166666666667     0.108780000000   
O      0.435140000000     0.218716666667     0.101675000000   
O      0.385775000000     0.271218333333     0.131330000000   
O      0.367535000000     0.249271666667     0.077155000000   
O      0.000000000000     0.250000000000     0.208400000000   
O      0.076740000000     0.267170000000     0.197445000000   
O      0.052990000000     0.183738333333     0.205520000000   
O      0.055200000000     0.240395000000     0.250000000000   
Si     0.027435000000     0.293883333333     0.122945000000   
Si     0.111820000000     0.268230000000     0.107120000000   
Si     0.453985000000     0.264801666667     0.215505000000   
Si     0.073230000000     0.316115000000     0.182360000000   
O      0.044820000000     0.312343333333     0.153715000000   
O      0.064860000000     0.281283333333     0.101675000000   
O      0.114225000000     0.228781666667     0.131330000000   
O      0.132465000000     0.250728333333     0.077155000000   
O      0.423260000000     0.232830000000     0.197445000000   
O      0.447010000000     0.316261666667     0.205520000000   
O      0.444800000000     0.259605000000     0.250000000000   
Si     0.277435000000     0.289450000000     0.372945000000   
Si     0.361820000000     0.315103333333     0.357120000000   
Si     0.203985000000     0.318531666667     0.465505000000   
Si     0.323230000000     0.267218333333     0.432360000000   
O      0.294820000000     0.270990000000     0.403715000000   
O      0.250000000000     0.166666666667     0.378950000000   
O      0.250000000000     0.250000000000     0.358780000000   
O      0.314860000000     0.302050000000     0.351675000000   
O      0.364225000000     0.187885000000     0.381330000000   
O      0.382465000000     0.332605000000     0.327155000000   
O      0.250000000000     0.166666666667     0.458400000000   
O      0.173260000000     0.183836666667     0.447445000000   
O      0.197010000000     0.267071666667     0.455520000000   
Si     0.222565000000     0.210550000000     0.372945000000   
Si     0.138180000000     0.184896666667     0.357120000000   
Si     0.296015000000     0.181468333333     0.465505000000   
Si     0.176770000000     0.232781666667     0.432360000000   
O      0.205180000000     0.229010000000     0.403715000000   
O      0.185140000000     0.197950000000     0.351675000000   
O      0.135775000000     0.312115000000     0.381330000000   
O      0.117535000000     0.167395000000     0.327155000000   
O      0.326740000000     0.316163333333     0.447445000000   
O      0.302990000000     0.232928333333     0.455520000000   
Si     0.027435000000     0.293883333333     0.377055000000   
Si     0.111820000000     0.268230000000     0.392880000000   
Si     0.453985000000     0.264801666667     0.284495000000   
Si     0.073230000000     0.316115000000     0.317640000000   
O      0.044820000000     0.312343333333     0.346285000000   
O      0.000000000000     0.250000000000     0.371050000000   
O      0.000000000000     0.166666666667     0.391220000000   
O      0.064860000000     0.281283333333     0.398325000000   
O      0.114225000000     0.228781666667     0.368670000000   
O      0.132465000000     0.250728333333     0.422845000000   
O      0.000000000000     0.250000000000     0.291600000000   
O      0.423260000000     0.232830000000     0.302555000000   
O      0.447010000000     0.316261666667     0.294480000000   
Si     0.472565000000     0.206116666667     0.377055000000   
Si     0.388180000000     0.231770000000     0.392880000000   
Si     0.046015000000     0.235198333333     0.284495000000   
Si     0.426770000000     0.183885000000     0.317640000000   
O      0.455180000000     0.187656666667     0.346285000000   
O      0.435140000000     0.218716666667     0.398325000000   
O      0.385775000000     0.271218333333     0.368670000000   
O      0.367535000000     0.249271666667     0.422845000000   
O      0.076740000000     0.267170000000     0.302555000000   
O      0.052990000000     0.183738333333     0.294480000000   
Si     0.222565000000     0.210550000000     0.627055000000   
Si     0.138180000000     0.184896666667     0.642880000000   
Si     0.296015000000     0.181468333333     0.534495000000   
Si     0.176770000000     0.232781666667     0.567640000000   
O      0.205180000000     0.229010000000     0.596285000000   
O      0.250000000000     0.166666666667     0.621050000000   
O      0.250000000000     0.250000000000     0.641220000000   
O      0.185140000000     0.197950000000     0.648325000000   
O      0.135775000000     0.312115000000     0.618670000000   
O      0.117535000000     0.167395000000     0.672845000000   
O      0.250000000000     0.166666666667     0.541600000000   
O      0.326740000000     0.316163333333     0.552555000000   
O      0.302990000000     0.232928333333     0.544480000000   
O      0.305200000000     0.176271666667     0.500000000000   
Si     0.277435000000     0.289450000000     0.627055000000   
Si     0.361820000000     0.315103333333     0.642880000000   
Si     0.203985000000     0.318531666667     0.534495000000   
Si     0.323230000000     0.267218333333     0.567640000000   
O      0.294820000000     0.270990000000     0.596285000000   
O      0.314860000000     0.302050000000     0.648325000000   
O      0.364225000000     0.187885000000     0.618670000000   
O      0.382465000000     0.332605000000     0.672845000000   
O      0.173260000000     0.183836666667     0.552555000000   
O      0.197010000000     0.267071666667     0.544480000000   
O      0.194800000000     0.323728333333     0.500000000000   
Si     0.472565000000     0.206116666667     0.622945000000   
Si     0.388180000000     0.231770000000     0.607120000000   
Si     0.046015000000     0.235198333333     0.715505000000   
Si     0.426770000000     0.183885000000     0.682360000000   
O      0.455180000000     0.187656666667     0.653715000000   
O      0.000000000000     0.250000000000     0.628950000000   
O      0.000000000000     0.166666666667     0.608780000000   
O      0.435140000000     0.218716666667     0.601675000000   
O      0.385775000000     0.271218333333     0.631330000000   
O      0.367535000000     0.249271666667     0.577155000000   
O      0.000000000000     0.250000000000     0.708400000000   
O      0.076740000000     0.267170000000     0.697445000000   
O      0.052990000000     0.183738333333     0.705520000000   
O      0.055200000000     0.240395000000     0.750000000000   
Si     0.027435000000     0.293883333333     0.622945000000   
Si     0.111820000000     0.268230000000     0.607120000000   
Si     0.453985000000     0.264801666667     0.715505000000   
Si     0.073230000000     0.316115000000     0.682360000000   
O      0.044820000000     0.312343333333     0.653715000000   
O      0.064860000000     0.281283333333     0.601675000000   
O      0.114225000000     0.228781666667     0.631330000000   
O      0.132465000000     0.250728333333     0.577155000000   
O      0.423260000000     0.232830000000     0.697445000000   
O      0.447010000000     0.316261666667     0.705520000000   
O      0.444800000000     0.259605000000     0.750000000000   
Si     0.277435000000     0.289450000000     0.872945000000   
Si     0.361820000000     0.315103333333     0.857120000000   
Si     0.203985000000     0.318531666667     0.965505000000   
Si     0.323230000000     0.267218333333     0.932360000000   
O      0.294820000000     0.270990000000     0.903715000000   
O      0.250000000000     0.166666666667     0.878950000000   
O      0.250000000000     0.250000000000     0.858780000000   
O      0.314860000000     0.302050000000     0.851675000000   
O      0.364225000000     0.187885000000     0.881330000000   
O      0.382465000000     0.332605000000     0.827155000000   
O      0.250000000000     0.166666666667     0.958400000000   
O      0.173260000000     0.183836666667     0.947445000000   
O      0.197010000000     0.267071666667     0.955520000000   
Si     0.222565000000     0.210550000000     0.872945000000   
Si     0.138180000000     0.184896666667     0.857120000000   
Si     0.296015000000     0.181468333333     0.965505000000   
Si     0.176770000000     0.232781666667     0.932360000000   
O      0.205180000000     0.229010000000     0.903715000000   
O      0.185140000000     0.197950000000     0.851675000000   
O      0.135775000000     0.312115000000     0.881330000000   
O      0.117535000000     0.167395000000     0.827155000000   
O      0.326740000000     0.316163333333     0.947445000000   
O      0.302990000000     0.232928333333     0.955520000000   
Si     0.027435000000     0.293883333333     0.877055000000   
Si     0.111820000000     0.268230000000     0.892880000000   
Si     0.453985000000     0.264801666667     0.784495000000   
Si     0.073230000000     0.316115000000     0.817640000000   
O      0.044820000000     0.312343333333     0.846285000000   
O      0.000000000000     0.250000000000     0.871050000000   
O      0.000000000000     0.166666666667     0.891220000000   
O      0.064860000000     0.281283333333     0.898325000000   
O      0.114225000000     0.228781666667     0.868670000000   
O      0.132465000000     0.250728333333     0.922845000000   
O      0.000000000000     0.250000000000     0.791600000000   
O      0.423260000000     0.232830000000     0.802555000000   
O      0.447010000000     0.316261666667     0.794480000000   
Si     0.472565000000     0.206116666667     0.877055000000   
Si     0.388180000000     0.231770000000     0.892880000000   
Si     0.046015000000     0.235198333333     0.784495000000   
Si     0.426770000000     0.183885000000     0.817640000000   
O      0.455180000000     0.187656666667     0.846285000000   
O      0.435140000000     0.218716666667     0.898325000000   
O      0.385775000000     0.271218333333     0.868670000000   
O      0.367535000000     0.249271666667     0.922845000000   
O      0.076740000000     0.267170000000     0.802555000000   
O      0.052990000000     0.183738333333     0.794480000000   
Si     0.222565000000     0.377216666667     0.127055000000   
Si     0.138180000000     0.351563333333     0.142880000000   
Si     0.296015000000     0.348135000000     0.034495000000   
Si     0.176770000000     0.399448333333     0.067640000000   
O      0.205180000000     0.395676666667     0.096285000000   
O      0.250000000000     0.333333333333     0.121050000000   
O      0.250000000000     0.416666666667     0.141220000000   
O      0.185140000000     0.364616666667     0.148325000000   
O      0.135775000000     0.478781666667     0.118670000000   
O      0.117535000000     0.334061666667     0.172845000000   
O      0.250000000000     0.333333333333     0.041600000000   
O      0.326740000000     0.482830000000     0.052555000000   
O      0.302990000000     0.399595000000     0.044480000000   
O      0.305200000000     0.342938333333     0.000000000000   
Si     0.277435000000     0.456116666667     0.127055000000   
Si     0.361820000000     0.481770000000     0.142880000000   
Si     0.203985000000     0.485198333333     0.034495000000   
Si     0.323230000000     0.433885000000     0.067640000000   
O      0.294820000000     0.437656666667     0.096285000000   
O      0.314860000000     0.468716666667     0.148325000000   
O      0.364225000000     0.354551666667     0.118670000000   
O      0.382465000000     0.499271666667     0.172845000000   
O      0.173260000000     0.350503333333     0.052555000000   
O      0.197010000000     0.433738333333     0.044480000000   
O      0.194800000000     0.490395000000     0.000000000000   
Si     0.472565000000     0.372783333333     0.122945000000   
Si     0.388180000000     0.398436666667     0.107120000000   
Si     0.046015000000     0.401865000000     0.215505000000   
Si     0.426770000000     0.350551666667     0.182360000000   
O      0.455180000000     0.354323333333     0.153715000000   
O      0.000000000000     0.416666666667     0.128950000000   
O      0.000000000000     0.333333333333     0.108780000000   
O      0.435140000000     0.385383333333     0.101675000000   
O      0.385775000000     0.437885000000     0.131330000000   
O      0.367535000000     0.415938333333     0.077155000000   
O      0.000000000000     0.416666666667     0.208400000000   
O      0.076740000000     0.433836666667     0.197445000000   
O      0.052990000000     0.350405000000     0.205520000000   
O      0.055200000000     0.407061666667     0.250000000000   
Si     0.027435000000     0.460550000000     0.122945000000   
Si     0.111820000000     0.434896666667     0.107120000000   
Si     0.453985000000     0.431468333333     0.215505000000   
Si     0.073230000000     0.482781666667     0.182360000000   
O      0.044820000000     0.479010000000     0.153715000000   
O      0.064860000000     0.447950000000     0.101675000000   
O      0.114225000000     0.395448333333     0.131330000000   
O      0.132465000000     0.417395000000     0.077155000000   
O      0.423260000000     0.399496666667     0.197445000000   
O      0.447010000000     0.482928333333     0.205520000000   
O      0.444800000000     0.426271666667     0.250000000000   
Si     0.277435000000     0.456116666667     0.372945000000   
Si     0.361820000000     0.481770000000     0.357120000000   
Si     0.203985000000     0.485198333333     0.465505000000   
Si     0.323230000000     0.433885000000     0.432360000000   
O      0.294820000000     0.437656666667     0.403715000000   
O      0.250000000000     0.333333333333     0.378950000000   
O      0.250000000000     0.416666666667     0.358780000000   
O      0.314860000000     0.468716666667     0.351675000000   
O      0.364225000000     0.354551666667     0.381330000000   
O      0.382465000000     0.499271666667     0.327155000000   
O      0.250000000000     0.333333333333     0.458400000000   
O      0.173260000000     0.350503333333     0.447445000000   
O      0.197010000000     0.433738333333     0.455520000000   
Si     0.222565000000     0.377216666667     0.372945000000   
Si     0.138180000000     0.351563333333     0.357120000000   
Si     0.296015000000     0.348135000000     0.465505000000   
Si     0.176770000000     0.399448333333     0.432360000000   
O      0.205180000000     0.395676666667     0.403715000000   
O      0.185140000000     0.364616666667     0.351675000000   
O      0.135775000000     0.478781666667     0.381330000000   
O      0.117535000000     0.334061666667     0.327155000000   
O      0.326740000000     0.482830000000     0.447445000000   
O      0.302990000000     0.399595000000     0.455520000000   
Si     0.027435000000     0.460550000000     0.377055000000   
Si     0.111820000000     0.434896666667     0.392880000000   
Si     0.453985000000     0.431468333333     0.284495000000   
Si     0.073230000000     0.482781666667     0.317640000000   
O      0.044820000000     0.479010000000     0.346285000000   
O      0.000000000000     0.416666666667     0.371050000000   
O      0.000000000000     0.333333333333     0.391220000000   
O      0.064860000000     0.447950000000     0.398325000000   
O      0.114225000000     0.395448333333     0.368670000000   
O      0.132465000000     0.417395000000     0.422845000000   
O      0.000000000000     0.416666666667     0.291600000000   
O      0.423260000000     0.399496666667     0.302555000000   
O      0.447010000000     0.482928333333     0.294480000000   
Si     0.472565000000     0.372783333333     0.377055000000   
Si     0.388180000000     0.398436666667     0.392880000000   