%BLOCK LATTICE_CART
ang    # angstrom units
  14.129000000000    0.000000000000     0.000000000000   
  0.000000000000     5.253000000000     0.000000000000   
 -2.366077343913     0.000000000000     8.608766578472   
%ENDBLOCK LATTICE_CART

%BLOCK POSITIONS_FRAC
O      0.337600000000     0.000000000000     0.065366666667   
O      0.265550000000     0.050000000000     0.087866666667   
O      0.250000000000     0.000000000000     0.000000000000   
O      0.000000000000     0.000000000000     0.166666666667   
O      0.067250000000     0.000000000000     0.255600000000   
O      0.125000000000     0.050000000000     0.000000000000   
Si     0.279500000000     0.000000000000     0.060166666667   
Si     0.009200000000     0.000000000000     0.228500000000   
Si     0.119800000000     0.000000000000     0.297733333333   
O      0.162400000000     0.000000000000     0.267966666667   
O      0.234450000000     0.050000000000     0.245466666667   
O      0.432750000000     0.000000000000     0.077733333333   
O      0.375000000000     0.050000000000     0.000000000000   
Si     0.220500000000     0.000000000000     0.273166666667   
Si     0.490800000000     0.000000000000     0.104833333333   
Si     0.380200000000     0.000000000000     0.035600000000   
O      0.234450000000     0.150000000000     0.245466666667   
O      0.375000000000     0.150000000000     0.000000000000   
O      0.265550000000     0.150000000000     0.087866666667   
O      0.125000000000     0.150000000000     0.000000000000   
O      0.087600000000     0.100000000000     0.065366666667   
O      0.015550000000     0.150000000000     0.087866666667   
O      0.000000000000     0.100000000000     0.000000000000   
O      0.250000000000     0.100000000000     0.166666666667   
O      0.317250000000     0.100000000000     0.255600000000   
Si     0.029500000000     0.100000000000     0.060166666667   
Si     0.259200000000     0.100000000000     0.228500000000   
Si     0.369800000000     0.100000000000     0.297733333333   
O      0.412400000000     0.100000000000     0.267966666667   
O      0.484450000000     0.150000000000     0.245466666667   
O      0.182750000000     0.100000000000     0.077733333333   
Si     0.470500000000     0.100000000000     0.273166666667   
Si     0.240800000000     0.100000000000     0.104833333333   
Si     0.130200000000     0.100000000000     0.035600000000   
O      0.484450000000     0.050000000000     0.245466666667   
O      0.015550000000     0.050000000000     0.087866666667   
O      0.337600000000     0.000000000000     0.398700000000   
O      0.265550000000     0.050000000000     0.421200000000   
O      0.250000000000     0.000000000000     0.333333333333   
O      0.000000000000     0.000000000000     0.500000000000   
O      0.067250000000     0.000000000000     0.588933333333   
O      0.125000000000     0.050000000000     0.333333333333   
Si     0.279500000000     0.000000000000     0.393500000000   
Si     0.009200000000     0.000000000000     0.561833333333   
Si     0.119800000000     0.000000000000     0.631066666667   
O      0.162400000000     0.000000000000     0.601300000000   
O      0.234450000000     0.050000000000     0.578800000000   
O      0.432750000000     0.000000000000     0.411066666667   
O      0.375000000000     0.050000000000     0.333333333333   
Si     0.220500000000     0.000000000000     0.606500000000   
Si     0.490800000000     0.000000000000     0.438166666667   
Si     0.380200000000     0.000000000000     0.368933333333   
O      0.234450000000     0.150000000000     0.578800000000   
O      0.375000000000     0.150000000000     0.333333333333   
O      0.265550000000     0.150000000000     0.421200000000   
O      0.125000000000     0.150000000000     0.333333333333   
O      0.087600000000     0.100000000000     0.398700000000   
O      0.015550000000     0.150000000000     0.421200000000   
O      0.000000000000     0.100000000000     0.333333333333   
O      0.250000000000     0.100000000000     0.500000000000   
O      0.317250000000     0.100000000000     0.588933333333   
Si     0.029500000000     0.100000000000     0.393500000000   
Si     0.259200000000     0.100000000000     0.561833333333   
Si     0.369800000000     0.100000000000     0.631066666667   
O      0.412400000000     0.100000000000     0.601300000000   
O      0.484450000000     0.150000000000     0.578800000000   
O      0.182750000000     0.100000000000     0.411066666667   
Si     0.470500000000     0.100000000000     0.606500000000   
Si     0.240800000000     0.100000000000     0.438166666667   
Si     0.130200000000     0.100000000000     0.368933333333   
O      0.484450000000     0.050000000000     0.578800000000   
O      0.015550000000     0.050000000000     0.421200000000   
O      0.337600000000     0.000000000000     0.732033333333   
O      0.265550000000     0.050000000000     0.754533333333   
O      0.250000000000     0.000000000000     0.666666666667   
O      0.000000000000     0.000000000000     0.833333333333   
O      0.067250000000     0.000000000000     0.922266666667   
O      0.125000000000     0.050000000000     0.666666666667   
Si     0.279500000000     0.000000000000     0.726833333333   
Si     0.009200000000     0.000000000000     0.895166666667   
Si     0.119800000000     0.000000000000     0.964400000000   
O      0.162400000000     0.000000000000     0.934633333333   
O      0.234450000000     0.050000000000     0.912133333333   
O      0.432750000000     0.000000000000     0.744400000000   
O      0.375000000000     0.050000000000     0.666666666667   
Si     0.220500000000     0.000000000000     0.939833333333   
Si     0.490800000000     0.000000000000     0.771500000000   
Si     0.380200000000     0.000000000000     0.702266666667   
O      0.234450000000     0.150000000000     0.912133333333   
O      0.375000000000     0.150000000000     0.666666666667   
O      0.265550000000     0.150000000000     0.754533333333   
O      0.125000000000     0.150000000000     0.666666666667   
O      0.087600000000     0.100000000000     0.732033333333   
O      0.015550000000     0.150000000000     0.754533333333   
O      0.000000000000     0.100000000000     0.666666666667   
O      0.250000000000     0.100000000000     0.833333333333   
O      0.317250000000     0.100000000000     0.922266666667   
Si     0.029500000000     0.100000000000     0.726833333333   
Si     0.259200000000     0.100000000000     0.895166666667   
Si     0.369800000000     0.100000000000     0.964400000000   
O      0.412400000000     0.100000000000     0.934633333333   
O      0.484450000000     0.150000000000     0.912133333333   
O      0.182750000000     0.100000000000     0.744400000000   
Si     0.470500000000     0.100000000000     0.939833333333   
Si     0.240800000000     0.100000000000     0.771500000000   
Si     0.130200000000     0.100000000000     0.702266666667   
O      0.484450000000     0.050000000000     0.912133333333   
O      0.015550000000     0.050000000000     0.754533333333   
O      0.337600000000     0.200000000000     0.065366666667   
O      0.265550000000     0.250000000000     0.087866666667   
O      0.250000000000     0.200000000000     0.000000000000   
O      0.000000000000     0.200000000000     0.166666666667   
O      0.067250000000     0.200000000000     0.255600000000   
O      0.125000000000     0.250000000000     0.000000000000   
Si     0.279500000000     0.200000000000     0.060166666667   
Si     0.009200000000     0.200000000000     0.228500000000   
Si     0.119800000000     0.200000000000     0.297733333333   
O      0.162400000000     0.200000000000     0.267966666667   
O      0.234450000000     0.250000000000     0.245466666667   
O      0.432750000000     0.200000000000     0.077733333333   
O      0.375000000000     0.250000000000     0.000000000000   
Si     0.220500000000     0.200000000000     0.273166666667   
Si     0.490800000000     0.200000000000     0.104833333333   
Si     0.380200000000     0.200000000000     0.035600000000   
O      0.234450000000     0.350000000000     0.245466666667   
O      0.375000000000     0.350000000000     0.000000000000   
O      0.265550000000     0.350000000000     0.087866666667   
O      0.125000000000     0.350000000000     0.000000000000   
O      0.087600000000     0.300000000000     0.065366666667   
O      0.015550000000     0.350000000000     0.087866666667   
O      0.000000000000     0.300000000000     0.000000000000   
O      0.250000000000     0.300000000000     0.166666666667   
O      0.317250000000     0.300000000000     0.255600000000   
Si     0.029500000000     0.300000000000     0.060166666667   
Si     0.259200000000     0.300000000000     0.228500000000   
Si     0.369800000000     0.300000000000     0.297733333333   
O      0.412400000000     0.300000000000     0.267966666667   
O      0.484450000000     0.350000000000     0.245466666667   
O      0.182750000000     0.300000000000     0.077733333333   
Si     0.470500000000     0.300000000000     0.273166666667   
Si     0.240800000000     0.300000000000     0.104833333333   
Si     0.130200000000     0.300000000000     0.035600000000   
O      0.484450000000     0.250000000000     0.245466666667   
O      0.015550000000     0.250000000000     0.087866666667   
O      0.337600000000     0.200000000000     0.398700000000   
O      0.265550000000     0.250000000000     0.421200000000   
O      0.250000000000     0.200000000000     0.333333333333   
O      0.000000000000     0.200000000000     0.500000000000   
O      0.067250000000     0.200000000000     0.588933333333   
O      0.125000000000     0.250000000000     0.333333333333   
Si     0.279500000000     0.200000000000     0.393500000000   
Si     0.009200000000     0.200000000000     0.561833333333   
Si     0.119800000000     0.200000000000     0.631066666667   
O      0.162400000000     0.200000000000     0.601300000000   
O      0.234450000000     0.250000000000     0.578800000000   
O      0.432750000000     0.200000000000     0.411066666667   
O      0.375000000000     0.250000000000     0.333333333333   
Si     0.220500000000     0.200000000000     0.606500000000   
Si     0.490800000000     0.200000000000     0.438166666667   
Si     0.380200000000     0.200000000000     0.368933333333   
O      0.234450000000     0.350000000000     0.578800000000   
O      0.375000000000     0.350000000000     0.333333333333   
O      0.265550000000     0.350000000000     0.421200000000   
O      0.125000000000     0.350000000000     0.333333333333   
O      0.087600000000     0.300000000000     0.398700000000   
O      0.015550000000     0.350000000000     0.421200000000   
O      0.000000000000     0.300000000000     0.333333333333   
O      0.250000000000     0.300000000000     0.500000000000   
O      0.317250000000     0.300000000000     0.588933333333   
Si     0.029500000000     0.300000000000     0.393500000000   
Si     0.259200000000     0.300000000000     0.561833333333   
Si     0.369800000000     0.300000000000     0.631066666667   
O      0.412400000000     0.300000000000     0.601300000000   
O      0.484450000000     0.350000000000     0.578800000000   
O      0.182750000000     0.300000000000     0.411066666667   
Si     0.470500000000     0.300000000000     0.606500000000   
Si     0.240800000000     0.300000000000     0.438166666667   
Si     0.130200000000     0.300000000000     0.368933333333   
O      0.484450000000     0.250000000000     0.578800000000   
O      0.015550000000     0.250000000000     0.421200000000   
O      0.337600000000     0.200000000000     0.732033333333   
O      0.265550000000     0.250000000000     0.754533333333   
O      0.250000000000     0.200000000000     0.666666666667   
O      0.000000000000     0.200000000000     0.833333333333   
O      0.067250000000     0.200000000000     0.922266666667   
O      0.125000000000     0.250000000000     0.666666666667   
Si     0.279500000000     0.200000000000     0.726833333333   
Si     0.009200000000     0.200000000000     0.895166666667   
Si     0.119800000000     0.200000000000     0.964400000000   
O      0.162400000000     0.200000000000     0.934633333333   
O      0.234450000000     0.250000000000     0.912133333333   
O      0.432750000000     0.200000000000     0.744400000000   
O      0.375000000000     0.250000000000     0.666666666667   
Si     0.220500000000     0.200000000000     0.939833333333   
Si     0.490800000000     0.200000000000     0.771500000000   
Si     0.380200000000     0.200000000000     0.702266666667   
O      0.234450000000     0.350000000000     0.912133333333   
O      0.375000000000     0.350000000000     0.666666666667   
O      0.265550000000     0.350000000000     0.754533333333   
O      0.125000000000     0.350000000000     0.666666666667   
O      0.087600000000     0.300000000000     0.732033333333   
O      0.015550000000     0.350000000000     0.754533333333   
O      0.000000000000     0.300000000000     0.666666666667   
O      0.250000000000     0.300000000000     0.833333333333   
O      0.317250000000     0.300000000000     0.922266666667   
Si     0.029500000000     0.300000000000     0.726833333333   
Si     0.259200000000     0.300000000000     0.895166666667   
Si     0.369800000000     0.300000000000     0.964400000000   
O      0.412400000000     0.300000000000     0.934633333333   
O      0.484450000000     0.350000000000     0.912133333333   
O      0.182750000000     0.300000000000     0.744400000000   
Si     0.470500000000     0.300000000000     0.939833333333   
Si     0.240800000000     0.300000000000     0.771500000000   
Si     0.130200000000     0.300000000000     0.702266666667   
O      0.484450000000     0.250000000000     0.912133333333   
O      0.015550000000     0.250000000000     0.754533333333   
O      0.337600000000     0.400000000000     0.065366666667   
O      0.265550000000     0.450000000000     0.087866666667   
O      0.250000000000     0.400000000000     0.000000000000   
O      0.000000000000     0.400000000000     0.166666666667   
O      0.067250000000     0.400000000000     0.255600000000   
O      0.125000000000     0.450000000000     0.000000000000   
Si     0.279500000000     0.400000000000     0.060166666667   
Si     0.009200000000     0.400000000000     0.228500000000   
Si     0.119800000000     0.400000000000     0.297733333333   
O      0.162400000000     0.400000000000     0.267966666667   
O      0.234450000000     0.450000000000     0.245466666667   
O      0.432750000000     0.400000000000     0.077733333333   
O      0.375000000000     0.450000000000     0.000000000000   
Si     0.220500000000     0.400000000000     0.273166666667   
Si     0.490800000000     0.400000000000     0.104833333333   
Si     0.380200000000     0.400000000000     0.035600000000   
O      0.234450000000     0.550000000000     0.245466666667   
O      0.375000000000     0.550000000000     0.000000000000   
O      0.265550000000     0.550000000000     0.087866666667   
O      0.125000000000     0.550000000000     0.000000000000   
O      0.087600000000     0.500000000000     0.065366666667   
O      0.015550000000     0.550000000000     0.087866666667   
O      0.000000000000     0.500000000000     0.000000000000   
O      0.250000000000     0.500000000000     0.166666666667   
O      0.317250000000     0.500000000000     0.255600000000   
Si     0.029500000000     0.500000000000     0.060166666667   
Si     0.259200000000     0.500000000000     0.228500000000   
Si     0.369800000000     0.500000000000     0.297733333333   
O      0.412400000000     0.500000000000     0.267966666667   
O      0.484450000000     0.550000000000     0.245466666667   
O      0.182750000000     0.500000000000     0.077733333333   
Si     0.470500000000     0.500000000000     0.273166666667   
Si     0.240800000000     0.500000000000     0.104833333333   
Si     0.130200000000     0.500000000000     0.035600000000   
O      0.484450000000     0.450000000000     0.245466666667   
O      0.015550000000     0.450000000000     0.087866666667   
O      0.337600000000     0.400000000000     0.398700000000   
O      0.265550000000     0.450000000000     0.421200000000   
O      0.250000000000     0.400000000000     0.333333333333   
O      0.000000000000     0.400000000000     0.500000000000   
O      0.067250000000     0.400000000000     0.588933333333   
O      0.125000000000     0.450000000000     0.333333333333   
Si     0.279500000000     0.400000000000     0.393500000000   
Si     0.009200000000     0.400000000000     0.561833333333   
Si     0.119800000000     0.400000000000     0.631066666667   
O      0.162400000000     0.400000000000     0.601300000000   
O      0.234450000000     0.450000000000     0.578800000000   
O      0.432750000000     0.400000000000     0.411066666667   
O      0.375000000000     0.450000000000     0.333333333333   
Si     0.220500000000     0.400000000000     0.606500000000   
Si     0.490800000000     0.400000000000     0.438166666667   
Si     0.380200000000     0.400000000000     0.368933333333   
O      0.234450000000     0.550000000000     0.578800000000   
O      0.375000000000     0.550000000000     0.333333333333   
O      0.265550000000     0.550000000000     0.421200000000   
O      0.125000000000     0.550000000000     0.333333333333   
O      0.087600000000     0.500000000000     0.398700000000   
O      0.015550000000     0.550000000000     0.421200000000   
O      0.000000000000     0.500000000000     0.333333333333   
O      0.250000000000     0.500000000000     0.500000000000   
O      0.317250000000     0.500000000000     0.588933333333   
Si     0.029500000000     0.500000000000     0.393500000000   
Si     0.259200000000     0.500000000000     0.561833333333   
Si     0.369800000000     0.500000000000     0.631066666667   
O      0.412400000000     0.500000000000     0.601300000000   
O      0.484450000000     0.550000000000     0.578800000000   
O      0.182750000000     0.500000000000     0.411066666667   
Si     0.470500000000     0.500000000000     0.606500000000   
Si     0.240800000000     0.500000000000     0.438166666667   
Si     0.130200000000     0.500000000000     0.368933333333   
O      0.484450000000     0.450000000000     0.578800000000   
O      0.015550000000     0.450000000000     0.421200000000   
O      0.337600000000     0.400000000000     0.732033333333   
O      0.265550000000     0.450000000000     0.754533333333   
O      0.250000000000     0.400000000000     0.666666666667   
O      0.000000000000     0.400000000000     0.833333333333   
O      0.067250000000     0.400000000000     0.922266666667   
O      0.125000000000     0.450000000000     0.666666666667   
Si     0.279500000000     0.400000000000     0.726833333333   
Si     0.009200000000     0.400000000000     0.895166666667   
Si     0.119800000000     0.400000000000     0.964400000000   
O      0.162400000000     0.400000000000     0.934633333333   
O      0.234450000000     0.450000000000     0.912133333333   
O      0.432750000000     0.400000000000     0.744400000000   
O      0.375000000000     0.450000000000     0.666666666667   
Si     0.220500000000     0.400000000000     0.939833333333   
Si     0.490800000000     0.400000000000     0.771500000000   
Si     0.380200000000     0.400000000000     0.702266666667   
O      0.234450000000     0.550000000000     0.912133333333   
O      0.375000000000     0.550000000000     0.666666666667   
O      0.265550000000     0.550000000000     0.754533333333   
O      0.125000000000     0.550000000000     0.666666666667   
O      0.087600000000     0.500000000000     0.732033333333   
O      0.015550000000     0.550000000000     0.754533333333   
O      0.000000000000     0.500000000000     0.666666666667   
O      0.250000000000     0.500000000000     0.833333333333   
O      0.317250000000     0.500000000000     0.922266666667   
Si     0.029500000000     0.500000000000     0.726833333333   
Si     0.259200000000     0.500000000000     0.895166666667   
Si     0.369800000000     0.500000000000     0.964400000000   
O      0.412400000000     0.500000000000     0.934633333333   
O      0.484450000000     0.550000000000     0.912133333333   
O      0.182750000000     0.500000000000     0.744400000000   
Si     0.470500000000     0.500000000000     0.939833333333   
Si     0.240800000000     0.500000000000     0.771500000000   
Si     0.130200000000     0.500000000000     0.702266666667   
O      0.484450000000     0.450000000000     0.912133333333   
O      0.015550000000     0.450000000000     0.754533333333   
O      0.337600000000     0.600000000000     0.065366666667   
O      0.265550000000     0.650000000000     0.087866666667   
O      0.250000000000     0.600000000000     0.000000000000   
O      0.000000000000     0.600000000000     0.166666666667   
O      0.067250000000     0.600000000000     0.255600000000   
O      0.125000000000     0.650000000000     0.000000000000   
Si     0.279500000000     0.600000000000     0.060166666667   
Si     0.009200000000     0.600000000000     0.228500000000   
Si     0.119800000000     0.600000000000     0.297733333333   
O      0.162400000000     0.600000000000     0.267966666667   
O      0.234450000000     0.650000000000     0.245466666667   
O      0.432750000000     0.600000000000     0.077733333333   
O      0.375000000000     0.650000000000     0.000000000000   
Si     0.220500000000     0.600000000000     0.273166666667   
Si     0.490800000000     0.600000000000     0.104833333333   
Si     0.380200000000     0.600000000000     0.035600000000   
O      0.234450000000     0.750000000000     0.245466666667   
O      0.375000000000     0.750000000000     0.000000000000   
O      0.265550000000     0.750000000000     0.087866666667   
O      0.125000000000     0.750000000000     0.000000000000   
O      0.087600000000     0.700000000000     0.065366666667   
O      0.015550000000     0.750000000000     0.087866666667   
O      0.000000000000     0.700000000000     0.000000000000   
O      0.250000000000     0.700000000000     0.166666666667   
O      0.317250000000     0.700000000000     0.255600000000   
Si     0.029500000000     0.700000000000     0.060166666667   
Si     0.259200000000     0.700000000000     0.228500000000   
Si     0.369800000000     0.700000000000     0.297733333333   
O      0.412400000000     0.700000000000     0.267966666667   
O      0.484450000000     0.750000000000     0.245466666667   
O      0.182750000000     0.700000000000     0.077733333333   
Si     0.470500000000     0.700000000000     0.273166666667   
Si     0.240800000000     0.700000000000     0.104833333333   
Si     0.130200000000     0.700000000000     0.035600000000   
O      0.484450000000     0.650000000000     0.245466666667   
O      0.015550000000     0.650000000000     0.087866666667   
O      0.337600000000     0.600000000000     0.398700000000   
O      0.265550000000     0.650000000000     0.421200000000   
O      0.250000000000     0.600000000000     0.333333333333   
O      0.000000000000     0.600000000000     0.500000000000   
O      0.067250000000     0.600000000000     0.588933333333   
O      0.125000000000     0.650000000000     0.333333333333   
Si     0.279500000000     0.600000000000     0.393500000000   
Si     0.009200000000     0.600000000000     0.561833333333   
Si     0.119800000000     0.600000000000     0.631066666667   
O      0.162400000000     0.600000000000     0.601300000000   
O      0.234450000000     0.650000000000     0.578800000000   
O      0.432750000000     0.600000000000     0.411066666667   
O      0.375000000000     0.650000000000     0.333333333333   
Si     0.220500000000     0.600000000000     0.606500000000   
Si     0.490800000000     0.600000000000     0.438166666667   
Si     0.380200000000     0.600000000000     0.368933333333   
O      0.234450000000     0.750000000000     0.578800000000   
O      0.375000000000     0.750000000000     0.333333333333   
O      0.265550000000     0.750000000000     0.421200000000   
O      0.125000000000     0.750000000000     0.333333333333   
O      0.087600000000     0.700000000000     0.398700000000   
O      0.015550000000     0.750000000000     0.421200000000   
O      0.000000000000     0.700000000000     0.333333333333   
O      0.250000000000     0.700000000000     0.500000000000   
O      0.317250000000     0.700000000000     0.588933333333   
Si     0.029500000000     0.700000000000     0.393500000000   
Si     0.259200000000     0.700000000000     0.561833333333   
Si     0.369800000000     0.700000000000     0.631066666667   
O      0.412400000000     0.700000000000     0.601300000000   
O      0.484450000000     0.750000000000     0.578800000000   
O      0.182750000000     0.700000000000     0.411066666667   
Si     0.470500000000     0.700000000000     0.606500000000   
Si     0.240800000000     0.700000000000     0.438166666667   
Si     0.130200000000     0.700000000000     0.368933333333   
O      0.484450000000     0.650000000000     0.578800000000   
O      0.015550000000     0.650000000000     0.421200000000   
O      0.337600000000     0.600000000000     0.732033333333   
O      0.265550000000     0.650000000000     0.754533333333   
O      0.250000000000     0.600000000000     0.666666666667   
O      0.000000000000     0.600000000000     0.833333333333   
O      0.067250000000     0.600000000000     0.922266666667   
O      0.125000000000     0.650000000000     0.666666666667   
Si     0.279500000000     0.600000000000     0.726833333333   
Si     0.009200000000     0.600000000000     0.895166666667   
Si     0.119800000000     0.600000000000     0.964400000000   
O      0.162400000000     0.600000000000     0.934633333333   
O      0.234450000000     0.650000000000     0.912133333333   
O      0.432750000000     0.600000000000     0.744400000000   
O      0.375000000000     0.650000000000     0.666666666667   
Si     0.220500000000     0.600000000000     0.939833333333   
Si     0.490800000000     0.600000000000     0.771500000000   
Si     0.380200000000     0.600000000000     0.702266666667   
O      0.234450000000     0.750000000000     0.912133333333   
O      0.375000000000     0.750000000000     0.666666666667   
O      0.265550000000     0.750000000000     0.754533333333   
O      0.125000000000     0.750000000000     0.666666666667   
O      0.087600000000     0.700000000000     0.732033333333   
O      0.015550000000     0.750000000000     0.754533333333   
O      0.000000000000     0.700000000000     0.666666666667   
O      0.250000000000     0.700000000000     0.833333333333   
O      0.317250000000     0.700000000000     0.922266666667   
Si     0.029500000000     0.700000000000     0.726833333333   
Si     0.259200000000     0.700000000000     0.895166666667   
Si     0.369800000000     0.700000000000     0.964400000000   
O      0.412400000000     0.700000000000     0.934633333333   
O      0.484450000000     0.750000000000     0.912133333333   
O      0.182750000000     0.700000000000     0.744400000000   
Si     0.470500000000     0.700000000000     0.939833333333   
Si     0.240800000000     0.700000000000     0.771500000000   
Si     0.130200000000     0.700000000000     0.702266666667   
O      0.484450000000     0.650000000000     0.912133333333   
O      0.015550000000     0.650000000000     0.754533333333   
O      0.337600000000     0.800000000000     0.065366666667   
O      0.265550000000     0.850000000000     0.087866666667   
O      0.250000000000     0.800000000000     0.000000000000   
O      0.000000000000     0.800000000000     0.166666666667   
O      0.067250000000     0.800000000000     0.255600000000   
O      0.125000000000     0.850000000000     0.000000000000   
Si     0.279500000000     0.800000000000     0.060166666667   
Si     0.009200000000     0.800000000000     0.228500000000   
Si     0.119800000000     0.800000000000     0.297733333333   
O      0.162400000000     0.800000000000     0.267966666667   
O      0.234450000000     0.850000000000     0.245466666667   
O      0.432750000000     0.800000000000     0.077733333333   
O      0.375000000000     0.850000000000     0.000000000000   
Si     0.220500000000     0.800000000000     0.273166666667   
Si     0.490800000000     0.800000000000     0.104833333333   
Si     0.380200000000     0.800000000000     0.035600000000   
O      0.234450000000     0.950000000000     0.245466666667   
O      0.375000000000     0.950000000000     0.000000000000   
O      0.265550000000     0.950000000000     0.087866666667   
O      0.125000000000     0.950000000000     0.000000000000   
O      0.087600000000     0.900000000000     0.065366666667   
O      0.015550000000     0.950000000000     0.087866666667   
O      0.000000000000     0.900000000000     0.000000000000   
O      0.250000000000     0.900000000000     0.166666666667   
O      0.317250000000     0.900000000000     0.255600000000   
Si     0.029500000000     0.900000000000     0.060166666667   
Si     0.259200000000     0.900000000000     0.228500000000   
Si     0.369800000000     0.900000000000     0.297733333333   
O      0.412400000000     0.900000000000     0.267966666667   
O      0.484450000000     0.950000000000     0.245466666667   
O      0.182750000000     0.900000000000     0.077733333333   
Si     0.470500000000     0.900000000000     0.273166666667   
Si     0.240800000000     0.900000000000     0.104833333333   
Si     0.130200000000     0.900000000000     0.035600000000   
O      0.484450000000     0.850000000000     0.245466666667   
O      0.015550000000     0.850000000000     0.087866666667   
O      0.337600000000     0.800000000000     0.398700000000   
O      0.265550000000     0.850000000000     0.421200000000   
O      0.250000000000     0.800000000000     0.333333333333   
O      0.000000000000     0.800000000000     0.500000000000   