%BLOCK LATTICE_CART
ang    # angstrom units
  14.349000000000    0.000000000000     0.000000000000   
  0.000000000000     14.349000000000    0.000000000000   
  0.000000000000     0.000000000000     10.398000000000  
%ENDBLOCK LATTICE_CART

%BLOCK POSITIONS_FRAC
O      0.120900000000     0.000000000000     0.000000000000   
O      0.084500000000     0.084500000000     0.000000000000   
O      0.250000000000     0.437250000000     0.262166666667   
O      0.163050000000     0.431450000000     0.290766666667   
Si     0.133100000000     0.444650000000     0.000000000000   
Si     0.304500000000     0.445500000000     0.250000000000   
O      0.000000000000     0.120900000000     0.000000000000   
O      0.415500000000     0.084500000000     0.000000000000   
O      0.062750000000     0.250000000000     0.262166666667   
O      0.068550000000     0.163050000000     0.290766666667   
Si     0.055350000000     0.133100000000     0.000000000000   
Si     0.054500000000     0.304500000000     0.250000000000   
O      0.379100000000     0.000000000000     0.000000000000   
O      0.415500000000     0.415500000000     0.000000000000   
O      0.250000000000     0.062750000000     0.262166666667   
O      0.336950000000     0.068550000000     0.290766666667   
Si     0.366900000000     0.055350000000     0.000000000000   
Si     0.195500000000     0.054500000000     0.250000000000   
O      0.000000000000     0.379100000000     0.000000000000   
O      0.084500000000     0.415500000000     0.000000000000   
O      0.437250000000     0.250000000000     0.262166666667   
O      0.431450000000     0.336950000000     0.290766666667   
Si     0.444650000000     0.366900000000     0.000000000000   
Si     0.445500000000     0.195500000000     0.250000000000   
O      0.250000000000     0.062750000000     0.071166666667   
O      0.163050000000     0.068550000000     0.042566666667   
Si     0.133100000000     0.055350000000     0.000000000000   
Si     0.304500000000     0.054500000000     0.083333333333   
O      0.437250000000     0.250000000000     0.071166666667   
O      0.431450000000     0.163050000000     0.042566666667   
Si     0.444650000000     0.133100000000     0.000000000000   
Si     0.445500000000     0.304500000000     0.083333333333   
O      0.250000000000     0.437250000000     0.071166666667   
O      0.336950000000     0.431450000000     0.042566666667   
Si     0.366900000000     0.444650000000     0.000000000000   
Si     0.195500000000     0.445500000000     0.083333333333   
O      0.062750000000     0.250000000000     0.071166666667   
O      0.068550000000     0.336950000000     0.042566666667   
Si     0.055350000000     0.366900000000     0.000000000000   
Si     0.054500000000     0.195500000000     0.083333333333   
O      0.336950000000     0.068550000000     0.042566666667   
Si     0.195500000000     0.054500000000     0.083333333333   
O      0.431450000000     0.336950000000     0.042566666667   
Si     0.445500000000     0.195500000000     0.083333333333   
O      0.163050000000     0.431450000000     0.042566666667   
Si     0.304500000000     0.445500000000     0.083333333333   
O      0.068550000000     0.163050000000     0.042566666667   
Si     0.054500000000     0.304500000000     0.083333333333   
O      0.336950000000     0.431450000000     0.290766666667   
Si     0.195500000000     0.445500000000     0.250000000000   
O      0.068550000000     0.336950000000     0.290766666667   
Si     0.054500000000     0.195500000000     0.250000000000   
O      0.163050000000     0.068550000000     0.290766666667   
Si     0.304500000000     0.054500000000     0.250000000000   
O      0.431450000000     0.163050000000     0.290766666667   
Si     0.445500000000     0.304500000000     0.250000000000   
O      0.370900000000     0.250000000000     0.166666666667   
O      0.334500000000     0.334500000000     0.166666666667   
O      0.000000000000     0.187250000000     0.095500000000   
O      0.413050000000     0.181450000000     0.124100000000   
Si     0.383100000000     0.194650000000     0.166666666667   
O      0.250000000000     0.370900000000     0.166666666667   
O      0.165500000000     0.334500000000     0.166666666667   
O      0.312750000000     0.000000000000     0.095500000000   
O      0.318550000000     0.413050000000     0.124100000000   
Si     0.305350000000     0.383100000000     0.166666666667   
O      0.129100000000     0.250000000000     0.166666666667   
O      0.165500000000     0.165500000000     0.166666666667   
O      0.000000000000     0.312750000000     0.095500000000   
O      0.086950000000     0.318550000000     0.124100000000   
Si     0.116900000000     0.305350000000     0.166666666667   
O      0.250000000000     0.129100000000     0.166666666667   
O      0.334500000000     0.165500000000     0.166666666667   
O      0.187250000000     0.000000000000     0.095500000000   
O      0.181450000000     0.086950000000     0.124100000000   
Si     0.194650000000     0.116900000000     0.166666666667   
O      0.000000000000     0.312750000000     0.237833333333   
O      0.413050000000     0.318550000000     0.209233333333   
Si     0.383100000000     0.305350000000     0.166666666667   
O      0.187250000000     0.000000000000     0.237833333333   
O      0.181450000000     0.413050000000     0.209233333333   
Si     0.194650000000     0.383100000000     0.166666666667   
O      0.000000000000     0.187250000000     0.237833333333   
O      0.086950000000     0.181450000000     0.209233333333   
Si     0.116900000000     0.194650000000     0.166666666667   
O      0.312750000000     0.000000000000     0.237833333333   
O      0.318550000000     0.086950000000     0.209233333333   
Si     0.305350000000     0.116900000000     0.166666666667   
O      0.086950000000     0.318550000000     0.209233333333   
O      0.181450000000     0.086950000000     0.209233333333   
O      0.413050000000     0.181450000000     0.209233333333   
O      0.318550000000     0.413050000000     0.209233333333   
O      0.086950000000     0.181450000000     0.124100000000   
O      0.318550000000     0.086950000000     0.124100000000   
O      0.413050000000     0.318550000000     0.124100000000   
O      0.181450000000     0.413050000000     0.124100000000   
O      0.120900000000     0.000000000000     0.333333333333   
O      0.084500000000     0.084500000000     0.333333333333   
O      0.250000000000     0.437250000000     0.595500000000   
O      0.163050000000     0.431450000000     0.624100000000   
Si     0.133100000000     0.444650000000     0.333333333333   
Si     0.304500000000     0.445500000000     0.583333333333   
O      0.000000000000     0.120900000000     0.333333333333   
O      0.415500000000     0.084500000000     0.333333333333   
O      0.062750000000     0.250000000000     0.595500000000   
O      0.068550000000     0.163050000000     0.624100000000   
Si     0.055350000000     0.133100000000     0.333333333333   
Si     0.054500000000     0.304500000000     0.583333333333   
O      0.379100000000     0.000000000000     0.333333333333   
O      0.415500000000     0.415500000000     0.333333333333   
O      0.250000000000     0.062750000000     0.595500000000   
O      0.336950000000     0.068550000000     0.624100000000   
Si     0.366900000000     0.055350000000     0.333333333333   
Si     0.195500000000     0.054500000000     0.583333333333   
O      0.000000000000     0.379100000000     0.333333333333   
O      0.084500000000     0.415500000000     0.333333333333   
O      0.437250000000     0.250000000000     0.595500000000   
O      0.431450000000     0.336950000000     0.624100000000   
Si     0.444650000000     0.366900000000     0.333333333333   
Si     0.445500000000     0.195500000000     0.583333333333   
O      0.250000000000     0.062750000000     0.404500000000   
O      0.163050000000     0.068550000000     0.375900000000   
Si     0.133100000000     0.055350000000     0.333333333333   
Si     0.304500000000     0.054500000000     0.416666666667   
O      0.437250000000     0.250000000000     0.404500000000   
O      0.431450000000     0.163050000000     0.375900000000   
Si     0.444650000000     0.133100000000     0.333333333333   
Si     0.445500000000     0.304500000000     0.416666666667   
O      0.250000000000     0.437250000000     0.404500000000   
O      0.336950000000     0.431450000000     0.375900000000   
Si     0.366900000000     0.444650000000     0.333333333333   
Si     0.195500000000     0.445500000000     0.416666666667   
O      0.062750000000     0.250000000000     0.404500000000   
O      0.068550000000     0.336950000000     0.375900000000   
Si     0.055350000000     0.366900000000     0.333333333333   
Si     0.054500000000     0.195500000000     0.416666666667   
O      0.336950000000     0.068550000000     0.375900000000   
Si     0.195500000000     0.054500000000     0.416666666667   
O      0.431450000000     0.336950000000     0.375900000000   
Si     0.445500000000     0.195500000000     0.416666666667   
O      0.163050000000     0.431450000000     0.375900000000   
Si     0.304500000000     0.445500000000     0.416666666667   
O      0.068550000000     0.163050000000     0.375900000000   
Si     0.054500000000     0.304500000000     0.416666666667   
O      0.336950000000     0.431450000000     0.624100000000   
Si     0.195500000000     0.445500000000     0.583333333333   
O      0.068550000000     0.336950000000     0.624100000000   
Si     0.054500000000     0.195500000000     0.583333333333   
O      0.163050000000     0.068550000000     0.624100000000   
Si     0.304500000000     0.054500000000     0.583333333333   
O      0.431450000000     0.163050000000     0.624100000000   
Si     0.445500000000     0.304500000000     0.583333333333   
O      0.370900000000     0.250000000000     0.500000000000   
O      0.334500000000     0.334500000000     0.500000000000   
O      0.000000000000     0.187250000000     0.428833333333   
O      0.413050000000     0.181450000000     0.457433333333   
Si     0.383100000000     0.194650000000     0.500000000000   
O      0.250000000000     0.370900000000     0.500000000000   
O      0.165500000000     0.334500000000     0.500000000000   
O      0.312750000000     0.000000000000     0.428833333333   
O      0.318550000000     0.413050000000     0.457433333333   
Si     0.305350000000     0.383100000000     0.500000000000   
O      0.129100000000     0.250000000000     0.500000000000   
O      0.165500000000     0.165500000000     0.500000000000   
O      0.000000000000     0.312750000000     0.428833333333   
O      0.086950000000     0.318550000000     0.457433333333   
Si     0.116900000000     0.305350000000     0.500000000000   
O      0.250000000000     0.129100000000     0.500000000000   
O      0.334500000000     0.165500000000     0.500000000000   
O      0.187250000000     0.000000000000     0.428833333333   
O      0.181450000000     0.086950000000     0.457433333333   
Si     0.194650000000     0.116900000000     0.500000000000   
O      0.000000000000     0.312750000000     0.571166666667   
O      0.413050000000     0.318550000000     0.542566666667   
Si     0.383100000000     0.305350000000     0.500000000000   
O      0.187250000000     0.000000000000     0.571166666667   
O      0.181450000000     0.413050000000     0.542566666667   
Si     0.194650000000     0.383100000000     0.500000000000   
O      0.000000000000     0.187250000000     0.571166666667   
O      0.086950000000     0.181450000000     0.542566666667   
Si     0.116900000000     0.194650000000     0.500000000000   
O      0.312750000000     0.000000000000     0.571166666667   
O      0.318550000000     0.086950000000     0.542566666667   
Si     0.305350000000     0.116900000000     0.500000000000   
O      0.086950000000     0.318550000000     0.542566666667   
O      0.181450000000     0.086950000000     0.542566666667   
O      0.413050000000     0.181450000000     0.542566666667   
O      0.318550000000     0.413050000000     0.542566666667   
O      0.086950000000     0.181450000000     0.457433333333   
O      0.318550000000     0.086950000000     0.457433333333   
O      0.413050000000     0.318550000000     0.457433333333   
O      0.181450000000     0.413050000000     0.457433333333   
O      0.120900000000     0.000000000000     0.666666666667   
O      0.084500000000     0.084500000000     0.666666666667   
O      0.250000000000     0.437250000000     0.928833333333   
O      0.163050000000     0.431450000000     0.957433333333   
Si     0.133100000000     0.444650000000     0.666666666667   
Si     0.304500000000     0.445500000000     0.916666666667   
O      0.000000000000     0.120900000000     0.666666666667   
O      0.415500000000     0.084500000000     0.666666666667   
O      0.062750000000     0.250000000000     0.928833333333   
O      0.068550000000     0.163050000000     0.957433333333   
Si     0.055350000000     0.133100000000     0.666666666667   
Si     0.054500000000     0.304500000000     0.916666666667   
O      0.379100000000     0.000000000000     0.666666666667   
O      0.415500000000     0.415500000000     0.666666666667   
O      0.250000000000     0.062750000000     0.928833333333   
O      0.336950000000     0.068550000000     0.957433333333   
Si     0.366900000000     0.055350000000     0.666666666667   
Si     0.195500000000     0.054500000000     0.916666666667   
O      0.000000000000     0.379100000000     0.666666666667   
O      0.084500000000     0.415500000000     0.666666666667   
O      0.437250000000     0.250000000000     0.928833333333   
O      0.431450000000     0.336950000000     0.957433333333   
Si     0.444650000000     0.366900000000     0.666666666667   
Si     0.445500000000     0.195500000000     0.916666666667   
O      0.250000000000     0.062750000000     0.737833333333   
O      0.163050000000     0.068550000000     0.709233333333   
Si     0.133100000000     0.055350000000     0.666666666667   
Si     0.304500000000     0.054500000000     0.750000000000   
O      0.437250000000     0.250000000000     0.737833333333   
O      0.431450000000     0.163050000000     0.709233333333   
Si     0.444650000000     0.133100000000     0.666666666667   
Si     0.445500000000     0.304500000000     0.750000000000   
O      0.250000000000     0.437250000000     0.737833333333   
O      0.336950000000     0.431450000000     0.709233333333   
Si     0.366900000000     0.444650000000     0.666666666667   
Si     0.195500000000     0.445500000000     0.750000000000   
O      0.062750000000     0.250000000000     0.737833333333   
O      0.068550000000     0.336950000000     0.709233333333   
Si     0.055350000000     0.366900000000     0.666666666667   
Si     0.054500000000     0.195500000000     0.750000000000   
O      0.336950000000     0.068550000000     0.709233333333   
Si     0.195500000000     0.054500000000     0.750000000000   
O      0.431450000000     0.336950000000     0.709233333333   
Si     0.445500000000     0.195500000000     0.750000000000   
O      0.163050000000     0.431450000000     0.709233333333   
Si     0.304500000000     0.445500000000     0.750000000000   
O      0.068550000000     0.163050000000     0.709233333333   
Si     0.054500000000     0.304500000000     0.750000000000   
O      0.336950000000     0.431450000000     0.957433333333   
Si     0.195500000000     0.445500000000     0.916666666667   
O      0.068550000000     0.336950000000     0.957433333333   
Si     0.054500000000     0.195500000000     0.916666666667   
O      0.163050000000     0.068550000000     0.957433333333   
Si     0.304500000000     0.054500000000     0.916666666667   
O      0.431450000000     0.163050000000     0.957433333333   
Si     0.445500000000     0.304500000000     0.916666666667   
O      0.370900000000     0.250000000000     0.833333333333   
O      0.334500000000     0.334500000000     0.833333333333   
O      0.000000000000     0.187250000000     0.762166666667   
O      0.413050000000     0.181450000000     0.790766666667   
Si     0.383100000000     0.194650000000     0.833333333333   
O      0.250000000000     0.370900000000     0.833333333333   
O      0.165500000000     0.334500000000     0.833333333333   
O      0.312750000000     0.000000000000     0.762166666667   
O      0.318550000000     0.413050000000     0.790766666667   
Si     0.305350000000     0.383100000000     0.833333333333   
O      0.129100000000     0.250000000000     0.833333333333   
O      0.165500000000     0.165500000000     0.833333333333   
O      0.000000000000     0.312750000000     0.762166666667   
O      0.086950000000     0.318550000000     0.790766666667   
Si     0.116900000000     0.305350000000     0.833333333333   
O      0.250000000000     0.129100000000     0.833333333333   
O      0.334500000000     0.165500000000     0.833333333333   
O      0.187250000000     0.000000000000     0.762166666667   
O      0.181450000000     0.086950000000     0.790766666667   
Si     0.194650000000     0.116900000000     0.833333333333   
O      0.000000000000     0.312750000000     0.904500000000   
O      0.413050000000     0.318550000000     0.875900000000   
Si     0.383100000000     0.305350000000     0.833333333333   
O      0.187250000000     0.000000000000     0.904500000000   
O      0.181450000000     0.413050000000     0.875900000000   
Si     0.194650000000     0.383100000000     0.833333333333   
O      0.000000000000     0.187250000000     0.904500000000   
O      0.086950000000     0.181450000000     0.875900000000   
Si     0.116900000000     0.194650000000     0.833333333333   
O      0.312750000000     0.000000000000     0.904500000000   
O      0.318550000000     0.086950000000     0.875900000000   
Si     0.305350000000     0.116900000000     0.833333333333   
O      0.086950000000     0.318550000000     0.875900000000   
O      0.181450000000     0.086950000000     0.875900000000   
O      0.413050000000     0.181450000000     0.875900000000   
O      0.318550000000     0.413050000000     0.875900000000   
O      0.086950000000     0.181450000000     0.790766666667   
O      0.318550000000     0.086950000000     0.790766666667   
O      0.413050000000     0.318550000000     0.790766666667   
O      0.181450000000     0.413050000000     0.790766666667   
O      0.120900000000     0.500000000000     0.000000000000   
O      0.084500000000     0.584500000000     0.000000000000   
O      0.250000000000     0.937250000000     0.262166666667   
O      0.163050000000     0.931450000000     0.290766666667   
Si     0.133100000000     0.944650000000     0.000000000000   
Si     0.304500000000     0.945500000000     0.250000000000   
O      0.000000000000     0.620900000000     0.000000000000   
O      0.415500000000     0.584500000000     0.000000000000   
O      0.062750000000     0.750000000000     0.262166666667   
O      0.068550000000     0.663050000000     0.290766666667   
Si     0.055350000000     0.633100000000     0.000000000000   
Si     0.054500000000     0.804500000000     0.250000000000   
O      0.379100000000     0.500000000000     0.000000000000   
O      0.415500000000     0.915500000000     0.000000000000   
O      0.250000000000     0.562750000000     0.262166666667   
O      0.336950000000     0.568550000000     0.290766666667   
Si     0.366900000000     0.555350000000     0.000000000000   
Si     0.195500000000     0.554500000000     0.250000000000   
O      0.000000000000     0.879100000000     0.000000000000   
O      0.084500000000     0.915500000000     0.000000000000   
O      0.437250000000     0.750000000000     0.262166666667   
O      0.431450000000     0.836950000000     0.290766666667   
Si     0.444650000000     0.866900000000     0.000000000000   
Si     0.445500000000     0.695500000000     0.250000000000   
O      0.250000000000     0.562750000000     0.071166666667   
O      0.163050000000     0.568550000000     0.042566666667   
Si     0.133100000000     0.555350000000     0.000000000000   
Si     0.304500000000     0.554500000000     0.083333333333   
O      0.437250000000     0.750000000000     0.071166666667   
O      0.431450000000     0.663050000000     0.042566666667   
Si     0.444650000000     0.633100000000     0.000000000000   
Si     0.445500000000     0.804500000000     0.083333333333   
O      0.250000000000     0.937250000000     0.071166666667   
O      0.336950000000     0.931450000000     0.042566666667   
Si     0.366900000000     0.944650000000     0.000000000000   
Si     0.195500000000     0.945500000000     0.083333333333   
O      0.062750000000     0.750000000000     0.071166666667   
O      0.068550000000     0.836950000000     0.042566666667   
Si     0.055350000000     0.866900000000     0.000000000000   
Si     0.054500000000     0.695500000000     0.083333333333   
O      0.336950000000     0.568550000000     0.042566666667   
Si     0.195500000000     0.554500000000     0.083333333333   
O      0.431450000000     0.836950000000     0.042566666667   
Si     0.445500000000     0.695500000000     0.083333333333   
O      0.163050000000     0.931450000000     0.042566666667   
Si     0.304500000000     0.945500000000     0.083333333333   
O      0.068550000000     0.663050000000     0.042566666667   
Si     0.054500000000     0.804500000000     0.083333333333   
O      0.336950000000     0.931450000000     0.290766666667   
Si     0.195500000000     0.945500000000     0.250000000000   
O      0.068550000000     0.836950000000     0.290766666667   
Si     0.054500000000     0.695500000000     0.250000000000   
O      0.163050000000     0.568550000000     0.290766666667   
Si     0.304500000000     0.554500000000     0.250000000000   
O      0.431450000000     0.663050000000     0.290766666667   
Si     0.445500000000     0.804500000000     0.250000000000   
O      0.370900000000     0.750000000000     0.166666666667   
O      0.334500000000     0.834500000000     0.166666666667   
O      0.000000000000     0.687250000000     0.095500000000   
O      0.413050000000     0.681450000000     0.124100000000   
Si     0.383100000000     0.694650000000     0.166666666667   
O      0.250000000000     0.870900000000     0.166666666667   
O      0.165500000000     0.834500000000     0.166666666667   
O      0.312750000000     0.500000000000     0.095500000000   
O      0.318550000000     0.913050000000     0.124100000000   
Si     0.305350000000     0.883100000000     0.166666666667   
O      0.129100000000     0.750000000000     0.166666666667   
O      0.165500000000     0.665500000000     0.166666666667   
O      0.000000000000     0.812750000000     0.095500000000   
O      0.086950000000     0.818550000000     0.124100000000   
Si     0.116900000000     0.805350000000     0.166666666667   
O      0.250000000000     0.629100000000     0.166666666667   
O      0.334500000000     0.665500000000     0.166666666667   
O      0.187250000000     0.500000000000     0.095500000000   
O      0.181450000000     0.586950000000     0.124100000000   
Si     0.194650000000     0.616900000000     0.166666666667   
O      0.000000000000     0.812750000000     0.237833333333   
O      0.413050000000     0.818550000000     0.209233333333   
Si     0.383100000000     0.805350000000     0.166666666667   
O      0.187250000000     0.500000000000     0.237833333333   
O      0.181450000000     0.913050000000     0.209233333333   
Si     0.194650000000     0.883100000000     0.166666666667   
O      0.000000000000     0.687250000000     0.237833333333   
O      0.086950000000     0.681450000000     0.209233333333   
Si     0.116900000000     0.694650000000     0.166666666667   
O      0.312750000000     0.500000000000     0.237833333333   
O      0.318550000000     0.586950000000     0.209233333333   
Si     0.305350000000     0.616900000000     0.166666666667   
O      0.086950000000     0.818550000000     0.209233333333   
O      0.181450000000     0.586950000000     0.209233333333   
O      0.413050000000     0.681450000000     0.209233333333   
O      0.318550000000     0.913050000000     0.209233333333   
O      0.086950000000     0.681450000000     0.124100000000   
O      0.318550000000     0.586950000000     0.124100000000   
O      0.413050000000     0.818550000000     0.124100000000   
O      0.181450000000     0.913050000000     0.124100000000   
O      0.120900000000     0.500000000000     0.333333333333   
O      0.084500000000     0.584500000000     0.333333333333   
O      0.250000000000     0.937250000000     0.595500000000   
O      0.163050000000     0.931450000000     0.624100000000   
Si     0.133100000000     0.944650000000     0.333333333333   
Si     0.304500000000     0.945500000000     0.583333333333   
O      0.000000000000     0.620900000000     0.333333333333   
O      0.415500000000     0.584500000000     0.333333333333   
O      0.062750000000     0.750000000000     0.595500000000   
O      0.068550000000     0.663050000000     0.624100000000   
Si     0.055350000000     0.633100000000     0.333333333333   
Si     0.054500000000     0.804500000000     0.583333333333   
O      0.379100000000     0.500000000000     0.333333333333   
O      0.415500000000     0.915500000000     0.333333333333   
O      0.250000000000     0.562750000000     0.595500000000   
O      0.336950000000     0.568550000000     0.624100000000   
Si     0.366900000000     0.555350000000     0.333333333333   
Si     0.195500000000     0.554500000000     0.583333333333   
O      0.000000000000     0.879100000000     0.333333333333   
O      0.084500000000     0.915500000000     0.333333333333   
O      0.437250000000     0.750000000000     0.595500000000   
O      0.431450000000     0.836950000000     0.624100000000   
Si     0.444650000000     0.866900000000     0.333333333333   
Si     0.445500000000     0.695500000000     0.583333333333   
O      0.250000000000     0.562750000000     0.404500000000   
O      0.163050000000     0.568550000000     0.375900000000   
Si     0.133100000000     0.555350000000     0.333333333333   
Si     0.304500000000     0.554500000000     0.416666666667   
O      0.437250000000     0.750000000000     0.404500000000   
O      0.431450000000     0.663050000000     0.375900000000   
Si     0.444650000000     0.633100000000     0.333333333333   
Si     0.445500000000     0.804500000000     0.416666666667   
O      0.250000000000     0.937250000000     0.404500000000   
O      0.336950000000     0.931450000000     0.375900000000   
Si     0.366900000000     0.944650000000     0.333333333333   
Si     0.195500000000     0.945500000000     0.416666666667   
O      0.062750000000     0.750000000000     0.404500000000   
O      0.068550000000     0.836950000000     0.375900000000   
Si     0.055350000000     0.866900000000     0.333333333333   
Si     0.054500000000     0.695500000000     0.416666666667   
O      0.336950000000     0.568550000000     0.375900000000   
Si     0.195500000000     0.554500000000     0.416666666667   
O      0.431450000000     0.836950000000     0.375900000000   
Si     0.445500000000     0.695500000000     0.416666666667   
O      0.163050000000     0.931450000000     0.375900000000   
Si     0.304500000000     0.945500000000     0.416666666667   
O      0.068550000000     0.663050000000     0.375900000000   
Si     0.054500000000     0.804500000000     0.416666666667   
O      0.336950000000     0.931450000000     0.624100000000   
Si     0.195500000000     0.945500000000     0.583333333333   
O      0.068550000000     0.836950000000     0.624100000000   
Si     0.054500000000     0.695500000000     0.583333333333   
O      0.163050000000     0.568550000000     0.624100000000   
Si     0.304500000000     0.554500000000     0.583333333333   
O      0.431450000000     0.663050000000     0.624100000000   
Si     0.445500000000     0.804500000000     0.583333333333   
O      0.370900000000     0.750000000000     0.500000000000   
O      0.334500000000     0.834500000000     0.500000000000   
O      0.000000000000     0.687250000000     0.428833333333   
O      0.413050000000     0.681450000000     0.457433333333   
Si     0.383100000000     0.694650000000     0.500000000000   
O      0.250000000000     0.870900000000     0.500000000000   
O      0.165500000000     0.834500000000     0.500000000000   
O      0.312750000000     0.500000000000     0.428833333333   
O      0.318550000000     0.913050000000     0.457433333333   
Si     0.305350000000     0.883100000000     0.500000000000   
O      0.129100000000     0.750000000000     0.500000000000   
O      0.165500000000     0.665500000000     0.500000000000   
O      0.000000000000     0.812750000000     0.428833333333   
O      0.086950000000     0.818550000000     0.457433333333   
Si     0.116900000000     0.805350000000     0.500000000000   
O      0.250000000000     0.629100000000     0.500000000000   
O      0.334500000000     0.665500000000     0.500000000000   
O      0.187250000000     0.500000000000     0.428833333333   
O      0.181450000000     0.586950000000     0.457433333333   
Si     0.194650000000     0.616900000000     0.500000000000   
O      0.000000000000     0.812750000000     0.571166666667   
O      0.413050000000     0.818550000000     0.542566666667   
Si     0.383100000000     0.805350000000     0.500000000000   
O      0.187250000000     0.500000000000     0.571166666667   
O      0.181450000000     0.913050000000     0.542566666667   
Si     0.194650000000     0.883100000000     0.500000000000   
O      0.000000000000     0.687250000000     0.571166666667   
O      0.086950000000     0.681450000000     0.542566666667   
Si     0.116900000000     0.694650000000     0.500000000000   
O      0.312750000000     0.500000000000     0.571166666667   
O      0.318550000000     0.586950000000     0.542566666667   
Si     0.305350000000     0.616900000000     0.500000000000   