%BLOCK LATTICE_CART
ang    # angstrom units
  7.412000000000     0.000000000000     0.000000000000   
  0.000000000000     8.641000000000     0.000000000000   
 -6.899421991658     0.000000000000     15.733733701224  
%ENDBLOCK LATTICE_CART

%BLOCK POSITIONS_FRAC
O      0.031800000000     0.237966666667     0.009900000000   
O      0.000000000000     0.000000000000     0.000000000000   
O      0.208200000000     0.264233333333     0.029900000000   
O      0.195350000000     0.259666666667     0.449600000000   
O      0.170725000000     0.172666666667     0.006100000000   
O      0.120850000000     0.098166666667     0.457850000000   
O      0.169900000000     0.162700000000     0.429900000000   
O      0.032825000000     0.212666666667     0.358350000000   
O      0.125000000000     0.235900000000     0.375000000000   
O      0.035300000000     0.140300000000     0.412900000000   
Si     0.233700000000     0.273866666667     0.497000000000   
Si     0.170475000000     0.131833333333     0.470750000000   
Si     0.073350000000     0.218000000000     0.338400000000   
Si     0.069225000000     0.116500000000     0.458550000000   
Si     0.000000000000     0.156600000000     0.125000000000   
O      0.218200000000     0.237966666667     0.240100000000   
O      0.000000000000     0.000000000000     0.250000000000   
O      0.041800000000     0.264233333333     0.220100000000   
O      0.054650000000     0.259666666667     0.300400000000   
O      0.079275000000     0.172666666667     0.243900000000   
O      0.129150000000     0.098166666667     0.292150000000   
O      0.080100000000     0.162700000000     0.320100000000   
O      0.217175000000     0.212666666667     0.391650000000   
O      0.214700000000     0.140300000000     0.337100000000   
Si     0.016300000000     0.273866666667     0.253000000000   
Si     0.079525000000     0.131833333333     0.279250000000   
Si     0.176650000000     0.218000000000     0.411600000000   
Si     0.180775000000     0.116500000000     0.291450000000   
O      0.218200000000     0.095366666667     0.490100000000   
O      0.041800000000     0.069100000000     0.470100000000   
O      0.054650000000     0.073666666667     0.050400000000   
O      0.079275000000     0.160666666667     0.493900000000   
O      0.129150000000     0.235166666667     0.042150000000   
O      0.080100000000     0.170633333333     0.070100000000   
O      0.217175000000     0.120666666667     0.141650000000   
O      0.125000000000     0.097433333333     0.125000000000   
O      0.214700000000     0.193033333333     0.087100000000   
Si     0.016300000000     0.059466666667     0.003000000000   
Si     0.079525000000     0.201500000000     0.029250000000   
Si     0.176650000000     0.115333333333     0.161600000000   
Si     0.180775000000     0.216833333333     0.041450000000   
Si     0.000000000000     0.176733333333     0.375000000000   
O      0.031800000000     0.095366666667     0.259900000000   
O      0.208200000000     0.069100000000     0.279900000000   
O      0.195350000000     0.073666666667     0.199600000000   
O      0.170725000000     0.160666666667     0.256100000000   
O      0.120850000000     0.235166666667     0.207850000000   
O      0.169900000000     0.170633333333     0.179900000000   
O      0.032825000000     0.120666666667     0.108350000000   
O      0.035300000000     0.193033333333     0.162900000000   
Si     0.233700000000     0.059466666667     0.247000000000   
Si     0.170475000000     0.201500000000     0.220750000000   
Si     0.073350000000     0.115333333333     0.088400000000   
Si     0.069225000000     0.216833333333     0.208550000000   
O      0.031800000000     0.237966666667     0.509900000000   
O      0.000000000000     0.000000000000     0.500000000000   
O      0.208200000000     0.264233333333     0.529900000000   
O      0.195350000000     0.259666666667     0.949600000000   
O      0.170725000000     0.172666666667     0.506100000000   
O      0.120850000000     0.098166666667     0.957850000000   
O      0.169900000000     0.162700000000     0.929900000000   
O      0.032825000000     0.212666666667     0.858350000000   
O      0.125000000000     0.235900000000     0.875000000000   
O      0.035300000000     0.140300000000     0.912900000000   
Si     0.233700000000     0.273866666667     0.997000000000   
Si     0.170475000000     0.131833333333     0.970750000000   
Si     0.073350000000     0.218000000000     0.838400000000   
Si     0.069225000000     0.116500000000     0.958550000000   
Si     0.000000000000     0.156600000000     0.625000000000   
O      0.218200000000     0.237966666667     0.740100000000   
O      0.000000000000     0.000000000000     0.750000000000   
O      0.041800000000     0.264233333333     0.720100000000   
O      0.054650000000     0.259666666667     0.800400000000   
O      0.079275000000     0.172666666667     0.743900000000   
O      0.129150000000     0.098166666667     0.792150000000   
O      0.080100000000     0.162700000000     0.820100000000   
O      0.217175000000     0.212666666667     0.891650000000   
O      0.214700000000     0.140300000000     0.837100000000   
Si     0.016300000000     0.273866666667     0.753000000000   
Si     0.079525000000     0.131833333333     0.779250000000   
Si     0.176650000000     0.218000000000     0.911600000000   
Si     0.180775000000     0.116500000000     0.791450000000   
O      0.218200000000     0.095366666667     0.990100000000   
O      0.041800000000     0.069100000000     0.970100000000   
O      0.054650000000     0.073666666667     0.550400000000   
O      0.079275000000     0.160666666667     0.993900000000   
O      0.129150000000     0.235166666667     0.542150000000   
O      0.080100000000     0.170633333333     0.570100000000   
O      0.217175000000     0.120666666667     0.641650000000   
O      0.125000000000     0.097433333333     0.625000000000   
O      0.214700000000     0.193033333333     0.587100000000   
Si     0.016300000000     0.059466666667     0.503000000000   
Si     0.079525000000     0.201500000000     0.529250000000   
Si     0.176650000000     0.115333333333     0.661600000000   
Si     0.180775000000     0.216833333333     0.541450000000   
Si     0.000000000000     0.176733333333     0.875000000000   
O      0.031800000000     0.095366666667     0.759900000000   
O      0.208200000000     0.069100000000     0.779900000000   
O      0.195350000000     0.073666666667     0.699600000000   
O      0.170725000000     0.160666666667     0.756100000000   
O      0.120850000000     0.235166666667     0.707850000000   
O      0.169900000000     0.170633333333     0.679900000000   
O      0.032825000000     0.120666666667     0.608350000000   
O      0.035300000000     0.193033333333     0.662900000000   
Si     0.233700000000     0.059466666667     0.747000000000   
Si     0.170475000000     0.201500000000     0.720750000000   
Si     0.073350000000     0.115333333333     0.588400000000   
Si     0.069225000000     0.216833333333     0.708550000000   
O      0.031800000000     0.571300000000     0.009900000000   
O      0.000000000000     0.333333333333     0.000000000000   
O      0.208200000000     0.597566666667     0.029900000000   
O      0.195350000000     0.593000000000     0.449600000000   
O      0.170725000000     0.506000000000     0.006100000000   
O      0.120850000000     0.431500000000     0.457850000000   
O      0.169900000000     0.496033333333     0.429900000000   
O      0.032825000000     0.546000000000     0.358350000000   
O      0.125000000000     0.569233333333     0.375000000000   
O      0.035300000000     0.473633333333     0.412900000000   
Si     0.233700000000     0.607200000000     0.497000000000   
Si     0.170475000000     0.465166666667     0.470750000000   
Si     0.073350000000     0.551333333333     0.338400000000   
Si     0.069225000000     0.449833333333     0.458550000000   
Si     0.000000000000     0.489933333333     0.125000000000   
O      0.218200000000     0.571300000000     0.240100000000   
O      0.000000000000     0.333333333333     0.250000000000   
O      0.041800000000     0.597566666667     0.220100000000   
O      0.054650000000     0.593000000000     0.300400000000   
O      0.079275000000     0.506000000000     0.243900000000   
O      0.129150000000     0.431500000000     0.292150000000   
O      0.080100000000     0.496033333333     0.320100000000   
O      0.217175000000     0.546000000000     0.391650000000   
O      0.214700000000     0.473633333333     0.337100000000   
Si     0.016300000000     0.607200000000     0.253000000000   
Si     0.079525000000     0.465166666667     0.279250000000   
Si     0.176650000000     0.551333333333     0.411600000000   
Si     0.180775000000     0.449833333333     0.291450000000   
O      0.218200000000     0.428700000000     0.490100000000   
O      0.041800000000     0.402433333333     0.470100000000   
O      0.054650000000     0.407000000000     0.050400000000   
O      0.079275000000     0.494000000000     0.493900000000   
O      0.129150000000     0.568500000000     0.042150000000   
O      0.080100000000     0.503966666667     0.070100000000   
O      0.217175000000     0.454000000000     0.141650000000   
O      0.125000000000     0.430766666667     0.125000000000   
O      0.214700000000     0.526366666667     0.087100000000   
Si     0.016300000000     0.392800000000     0.003000000000   
Si     0.079525000000     0.534833333333     0.029250000000   
Si     0.176650000000     0.448666666667     0.161600000000   
Si     0.180775000000     0.550166666667     0.041450000000   
Si     0.000000000000     0.510066666667     0.375000000000   
O      0.031800000000     0.428700000000     0.259900000000   
O      0.208200000000     0.402433333333     0.279900000000   
O      0.195350000000     0.407000000000     0.199600000000   
O      0.170725000000     0.494000000000     0.256100000000   
O      0.120850000000     0.568500000000     0.207850000000   
O      0.169900000000     0.503966666667     0.179900000000   
O      0.032825000000     0.454000000000     0.108350000000   
O      0.035300000000     0.526366666667     0.162900000000   
Si     0.233700000000     0.392800000000     0.247000000000   
Si     0.170475000000     0.534833333333     0.220750000000   
Si     0.073350000000     0.448666666667     0.088400000000   
Si     0.069225000000     0.550166666667     0.208550000000   
O      0.031800000000     0.571300000000     0.509900000000   
O      0.000000000000     0.333333333333     0.500000000000   
O      0.208200000000     0.597566666667     0.529900000000   
O      0.195350000000     0.593000000000     0.949600000000   
O      0.170725000000     0.506000000000     0.506100000000   
O      0.120850000000     0.431500000000     0.957850000000   
O      0.169900000000     0.496033333333     0.929900000000   
O      0.032825000000     0.546000000000     0.858350000000   
O      0.125000000000     0.569233333333     0.875000000000   
O      0.035300000000     0.473633333333     0.912900000000   
Si     0.233700000000     0.607200000000     0.997000000000   
Si     0.170475000000     0.465166666667     0.970750000000   
Si     0.073350000000     0.551333333333     0.838400000000   
Si     0.069225000000     0.449833333333     0.958550000000   
Si     0.000000000000     0.489933333333     0.625000000000   
O      0.218200000000     0.571300000000     0.740100000000   
O      0.000000000000     0.333333333333     0.750000000000   
O      0.041800000000     0.597566666667     0.720100000000   
O      0.054650000000     0.593000000000     0.800400000000   
O      0.079275000000     0.506000000000     0.743900000000   
O      0.129150000000     0.431500000000     0.792150000000   
O      0.080100000000     0.496033333333     0.820100000000   
O      0.217175000000     0.546000000000     0.891650000000   
O      0.214700000000     0.473633333333     0.837100000000   
Si     0.016300000000     0.607200000000     0.753000000000   
Si     0.079525000000     0.465166666667     0.779250000000   
Si     0.176650000000     0.551333333333     0.911600000000   
Si     0.180775000000     0.449833333333     0.791450000000   
O      0.218200000000     0.428700000000     0.990100000000   
O      0.041800000000     0.402433333333     0.970100000000   
O      0.054650000000     0.407000000000     0.550400000000   
O      0.079275000000     0.494000000000     0.993900000000   
O      0.129150000000     0.568500000000     0.542150000000   
O      0.080100000000     0.503966666667     0.570100000000   
O      0.217175000000     0.454000000000     0.641650000000   
O      0.125000000000     0.430766666667     0.625000000000   
O      0.214700000000     0.526366666667     0.587100000000   
Si     0.016300000000     0.392800000000     0.503000000000   
Si     0.079525000000     0.534833333333     0.529250000000   
Si     0.176650000000     0.448666666667     0.661600000000   
Si     0.180775000000     0.550166666667     0.541450000000   
Si     0.000000000000     0.510066666667     0.875000000000   
O      0.031800000000     0.428700000000     0.759900000000   
O      0.208200000000     0.402433333333     0.779900000000   
O      0.195350000000     0.407000000000     0.699600000000   
O      0.170725000000     0.494000000000     0.756100000000   
O      0.120850000000     0.568500000000     0.707850000000   
O      0.169900000000     0.503966666667     0.679900000000   
O      0.032825000000     0.454000000000     0.608350000000   
O      0.035300000000     0.526366666667     0.662900000000   
Si     0.233700000000     0.392800000000     0.747000000000   
Si     0.170475000000     0.534833333333     0.720750000000   
Si     0.073350000000     0.448666666667     0.588400000000   
Si     0.069225000000     0.550166666667     0.708550000000   
O      0.031800000000     0.904633333333     0.009900000000   
O      0.000000000000     0.666666666667     0.000000000000   
O      0.208200000000     0.930900000000     0.029900000000   
O      0.195350000000     0.926333333333     0.449600000000   
O      0.170725000000     0.839333333333     0.006100000000   
O      0.120850000000     0.764833333333     0.457850000000   
O      0.169900000000     0.829366666667     0.429900000000   
O      0.032825000000     0.879333333333     0.358350000000   
O      0.125000000000     0.902566666667     0.375000000000   
O      0.035300000000     0.806966666667     0.412900000000   
Si     0.233700000000     0.940533333333     0.497000000000   
Si     0.170475000000     0.798500000000     0.470750000000   
Si     0.073350000000     0.884666666667     0.338400000000   
Si     0.069225000000     0.783166666667     0.458550000000   
Si     0.000000000000     0.823266666667     0.125000000000   
O      0.218200000000     0.904633333333     0.240100000000   
O      0.000000000000     0.666666666667     0.250000000000   
O      0.041800000000     0.930900000000     0.220100000000   
O      0.054650000000     0.926333333333     0.300400000000   
O      0.079275000000     0.839333333333     0.243900000000   
O      0.129150000000     0.764833333333     0.292150000000   
O      0.080100000000     0.829366666667     0.320100000000   
O      0.217175000000     0.879333333333     0.391650000000   
O      0.214700000000     0.806966666667     0.337100000000   
Si     0.016300000000     0.940533333333     0.253000000000   
Si     0.079525000000     0.798500000000     0.279250000000   
Si     0.176650000000     0.884666666667     0.411600000000   
Si     0.180775000000     0.783166666667     0.291450000000   
O      0.218200000000     0.762033333333     0.490100000000   
O      0.041800000000     0.735766666667     0.470100000000   
O      0.054650000000     0.740333333333     0.050400000000   
O      0.079275000000     0.827333333333     0.493900000000   
O      0.129150000000     0.901833333333     0.042150000000   
O      0.080100000000     0.837300000000     0.070100000000   
O      0.217175000000     0.787333333333     0.141650000000   
O      0.125000000000     0.764100000000     0.125000000000   
O      0.214700000000     0.859700000000     0.087100000000   
Si     0.016300000000     0.726133333333     0.003000000000   
Si     0.079525000000     0.868166666667     0.029250000000   
Si     0.176650000000     0.782000000000     0.161600000000   
Si     0.180775000000     0.883500000000     0.041450000000   
Si     0.000000000000     0.843400000000     0.375000000000   
O      0.031800000000     0.762033333333     0.259900000000   
O      0.208200000000     0.735766666667     0.279900000000   
O      0.195350000000     0.740333333333     0.199600000000   
O      0.170725000000     0.827333333333     0.256100000000   
O      0.120850000000     0.901833333333     0.207850000000   
O      0.169900000000     0.837300000000     0.179900000000   
O      0.032825000000     0.787333333333     0.108350000000   
O      0.035300000000     0.859700000000     0.162900000000   
Si     0.233700000000     0.726133333333     0.247000000000   
Si     0.170475000000     0.868166666667     0.220750000000   
Si     0.073350000000     0.782000000000     0.088400000000   
Si     0.069225000000     0.883500000000     0.208550000000   
O      0.031800000000     0.904633333333     0.509900000000   
O      0.000000000000     0.666666666667     0.500000000000   
O      0.208200000000     0.930900000000     0.529900000000   
O      0.195350000000     0.926333333333     0.949600000000   
O      0.170725000000     0.839333333333     0.506100000000   
O      0.120850000000     0.764833333333     0.957850000000   
O      0.169900000000     0.829366666667     0.929900000000   
O      0.032825000000     0.879333333333     0.858350000000   
O      0.125000000000     0.902566666667     0.875000000000   
O      0.035300000000     0.806966666667     0.912900000000   
Si     0.233700000000     0.940533333333     0.997000000000   
Si     0.170475000000     0.798500000000     0.970750000000   
Si     0.073350000000     0.884666666667     0.838400000000   
Si     0.069225000000     0.783166666667     0.958550000000   
Si     0.000000000000     0.823266666667     0.625000000000   
O      0.218200000000     0.904633333333     0.740100000000   
O      0.000000000000     0.666666666667     0.750000000000   
O      0.041800000000     0.930900000000     0.720100000000   
O      0.054650000000     0.926333333333     0.800400000000   
O      0.079275000000     0.839333333333     0.743900000000   
O      0.129150000000     0.764833333333     0.792150000000   
O      0.080100000000     0.829366666667     0.820100000000   
O      0.217175000000     0.879333333333     0.891650000000   
O      0.214700000000     0.806966666667     0.837100000000   
Si     0.016300000000     0.940533333333     0.753000000000   
Si     0.079525000000     0.798500000000     0.779250000000   
Si     0.176650000000     0.884666666667     0.911600000000   
Si     0.180775000000     0.783166666667     0.791450000000   
O      0.218200000000     0.762033333333     0.990100000000   
O      0.041800000000     0.735766666667     0.970100000000   
O      0.054650000000     0.740333333333     0.550400000000   
O      0.079275000000     0.827333333333     0.993900000000   
O      0.129150000000     0.901833333333     0.542150000000   
O      0.080100000000     0.837300000000     0.570100000000   
O      0.217175000000     0.787333333333     0.641650000000   
O      0.125000000000     0.764100000000     0.625000000000   
O      0.214700000000     0.859700000000     0.587100000000   
Si     0.016300000000     0.726133333333     0.503000000000   
Si     0.079525000000     0.868166666667     0.529250000000   
Si     0.176650000000     0.782000000000     0.661600000000   
Si     0.180775000000     0.883500000000     0.541450000000   
Si     0.000000000000     0.843400000000     0.875000000000   
O      0.031800000000     0.762033333333     0.759900000000   
O      0.208200000000     0.735766666667     0.779900000000   
O      0.195350000000     0.740333333333     0.699600000000   
O      0.170725000000     0.827333333333     0.756100000000   
O      0.120850000000     0.901833333333     0.707850000000   
O      0.169900000000     0.837300000000     0.679900000000   
O      0.032825000000     0.787333333333     0.608350000000   
O      0.035300000000     0.859700000000     0.662900000000   
Si     0.233700000000     0.726133333333     0.747000000000   
Si     0.170475000000     0.868166666667     0.720750000000   
Si     0.073350000000     0.782000000000     0.588400000000   
Si     0.069225000000     0.883500000000     0.708550000000   
O      0.281800000000     0.237966666667     0.009900000000   
O      0.250000000000     0.000000000000     0.000000000000   
O      0.458200000000     0.264233333333     0.029900000000   
O      0.445350000000     0.259666666667     0.449600000000   
O      0.420725000000     0.172666666667     0.006100000000   
O      0.370850000000     0.098166666667     0.457850000000   
O      0.419900000000     0.162700000000     0.429900000000   
O      0.282825000000     0.212666666667     0.358350000000   
O      0.375000000000     0.235900000000     0.375000000000   
O      0.285300000000     0.140300000000     0.412900000000   
Si     0.483700000000     0.273866666667     0.497000000000   
Si     0.420475000000     0.131833333333     0.470750000000   
Si     0.323350000000     0.218000000000     0.338400000000   
Si     0.319225000000     0.116500000000     0.458550000000   
Si     0.250000000000     0.156600000000     0.125000000000   
O      0.468200000000     0.237966666667     0.240100000000   
O      0.250000000000     0.000000000000     0.250000000000   
O      0.291800000000     0.264233333333     0.220100000000   
O      0.304650000000     0.259666666667     0.300400000000   
O      0.329275000000     0.172666666667     0.243900000000   
O      0.379150000000     0.098166666667     0.292150000000   
O      0.330100000000     0.162700000000     0.320100000000   
O      0.467175000000     0.212666666667     0.391650000000   
O      0.464700000000     0.140300000000     0.337100000000   
Si     0.266300000000     0.273866666667     0.253000000000   
Si     0.329525000000     0.131833333333     0.279250000000   
Si     0.426650000000     0.218000000000     0.411600000000   
Si     0.430775000000     0.116500000000     0.291450000000   
O      0.468200000000     0.095366666667     0.490100000000   
O      0.291800000000     0.069100000000     0.470100000000   
O      0.304650000000     0.073666666667     0.050400000000   
O      0.329275000000     0.160666666667     0.493900000000   
O      0.379150000000     0.235166666667     0.042150000000   
O      0.330100000000     0.170633333333     0.070100000000   
O      0.467175000000     0.120666666667     0.141650000000   
O      0.375000000000     0.097433333333     0.125000000000   
O      0.464700000000     0.193033333333     0.087100000000   
Si     0.266300000000     0.059466666667     0.003000000000   
Si     0.329525000000     0.201500000000     0.029250000000   
Si     0.426650000000     0.115333333333     0.161600000000   
Si     0.430775000000     0.216833333333     0.041450000000   
Si     0.250000000000     0.176733333333     0.375000000000   
O      0.281800000000     0.095366666667     0.259900000000   
O      0.458200000000     0.069100000000     0.279900000000   
O      0.445350000000     0.073666666667     0.199600000000   
O      0.420725000000     0.160666666667     0.256100000000   
O      0.370850000000     0.235166666667     0.207850000000   
O      0.419900000000     0.170633333333     0.179900000000   
O      0.282825000000     0.120666666667     0.108350000000   
O      0.285300000000     0.193033333333     0.162900000000   
Si     0.483700000000     0.059466666667     0.247000000000   
Si     0.420475000000     0.201500000000     0.220750000000   
Si     0.323350000000     0.115333333333     0.088400000000   
Si     0.319225000000     0.216833333333     0.208550000000   
O      0.281800000000     0.237966666667     0.509900000000   
O      0.250000000000     0.000000000000     0.500000000000   
O      0.458200000000     0.264233333333     0.529900000000   
O      0.445350000000     0.259666666667     0.949600000000   
O      0.420725000000     0.172666666667     0.506100000000   
O      0.370850000000     0.098166666667     0.957850000000   
O      0.419900000000     0.162700000000     0.929900000000   
O      0.282825000000     0.212666666667     0.858350000000   
O      0.375000000000     0.235900000000     0.875000000000   
O      0.285300000000     0.140300000000     0.912900000000   
Si     0.483700000000     0.273866666667     0.997000000000   
Si     0.420475000000     0.131833333333     0.970750000000   
Si     0.323350000000     0.218000000000     0.838400000000   
Si     0.319225000000     0.116500000000     0.958550000000   
Si     0.250000000000     0.156600000000     0.625000000000   
O      0.468200000000     0.237966666667     0.740100000000   
O      0.250000000000     0.000000000000     0.750000000000   
O      0.291800000000     0.264233333333     0.720100000000   
O      0.304650000000     0.259666666667     0.800400000000   
O      0.329275000000     0.172666666667     0.743900000000   
O      0.379150000000     0.098166666667     0.792150000000   
O      0.330100000000     0.162700000000     0.820100000000   
O      0.467175000000     0.212666666667     0.891650000000   
O      0.464700000000     0.140300000000     0.837100000000   
Si     0.266300000000     0.273866666667     0.753000000000   
Si     0.329525000000     0.131833333333     0.779250000000   
Si     0.426650000000     0.218000000000     0.911600000000   
Si     0.430775000000     0.116500000000     0.791450000000   
O      0.468200000000     0.095366666667     0.990100000000   
O      0.291800000000     0.069100000000     0.970100000000   
O      0.304650000000     0.073666666667     0.550400000000   
O      0.329275000000     0.160666666667     0.993900000000   
O      0.379150000000     0.235166666667     0.542150000000   
O      0.330100000000     0.170633333333     0.570100000000   
O      0.467175000000     0.120666666667     0.641650000000   
O      0.375000000000     0.097433333333     0.625000000000   
O      0.464700000000     0.193033333333     0.587100000000   
Si     0.266300000000     0.059466666667     0.503000000000   
Si     0.329525000000     0.201500000000     0.529250000000   
Si     0.426650000000     0.115333333333     0.661600000000   
Si     0.430775000000     0.216833333333     0.541450000000   
Si     0.250000000000     0.176733333333     0.875000000000   
O      0.281800000000     0.095366666667     0.759900000000   
O      0.458200000000     0.069100000000     0.779900000000   
O      0.445350000000     0.073666666667     0.699600000000   
O      0.420725000000     0.160666666667     0.756100000000   
O      0.370850000000     0.235166666667     0.707850000000   
O      0.419900000000     0.170633333333     0.679900000000   
O      0.282825000000     0.120666666667     0.608350000000   
O      0.285300000000     0.193033333333     0.662900000000   
Si     0.483700000000     0.059466666667     0.747000000000   
Si     0.420475000000     0.201500000000     0.720750000000   
Si     0.323350000000     0.115333333333     0.588400000000   
Si     0.319225000000     0.216833333333     0.708550000000   
O      0.281800000000     0.571300000000     0.009900000000   
O      0.250000000000     0.333333333333     0.000000000000   
O      0.458200000000     0.597566666667     0.029900000000   
O      0.445350000000     0.593000000000     0.449600000000   
O      0.420725000000     0.506000000000     0.006100000000   
O      0.370850000000     0.431500000000     0.457850000000   
O      0.419900000000     0.496033333333     0.429900000000   
O      0.282825000000     0.546000000000     0.358350000000   
O      0.375000000000     0.569233333333     0.375000000000   
O      0.285300000000     0.473633333333     0.412900000000   
Si     0.483700000000     0.607200000000     0.497000000000   
Si     0.420475000000     0.465166666667     0.470750000000   
Si     0.323350000000     0.551333333333     0.338400000000   
Si     0.319225000000     0.449833333333     0.458550000000   
Si     0.250000000000     0.489933333333     0.125000000000   
O      0.468200000000     0.571300000000     0.240100000000   
O      0.250000000000     0.333333333333     0.250000000000   
O      0.291800000000     0.597566666667     0.220100000000   
O      0.304650000000     0.593000000000     0.300400000000   
O      0.329275000000     0.506000000000     0.243900000000   
O      0.379150000000     0.431500000000     0.292150000000   
O      0.330100000000     0.496033333333     0.320100000000   
O      0.467175000000     0.546000000000     0.391650000000   
O      0.464700000000     0.473633333333     0.337100000000   
Si     0.266300000000     0.607200000000     0.253000000000   
Si     0.329525000000     0.465166666667     0.279250000000   
Si     0.426650000000     0.551333333333     0.411600000000   
Si     0.430775000000     0.449833333333     0.291450000000   
O      0.468200000000     0.428700000000     0.490100000000   
O      0.291800000000     0.402433333333     0.470100000000   
O      0.304650000000     0.407000000000     0.050400000000   
O      0.329275000000     0.494000000000     0.493900000000   
O      0.379150000000     0.568500000000     0.042150000000   
O      0.330100000000     0.503966666667     0.070100000000   
O      0.467175000000     0.454000000000     0.141650000000   
O      0.375000000000     0.430766666667     0.125000000000   
O      0.464700000000     0.526366666667     0.087100000000   
Si     0.266300000000     0.392800000000     0.003000000000   
Si     0.329525000000     0.534833333333     0.029250000000   
Si     0.426650000000     0.448666666667     0.161600000000   