%BLOCK LATTICE_CART
ang    # angstrom units
  13.624000000000    0.000000000000     0.000000000000   
  0.000000000000     13.624000000000    0.000000000000   
  0.000000000000     0.000000000000     13.624000000000  
%ENDBLOCK LATTICE_CART

%BLOCK POSITIONS_FRAC
O      0.068250000000     0.068250000000     0.000000000000   
O      0.090900000000     0.090900000000     0.090900000000   
Si     0.056850000000     0.056850000000     0.056850000000   
Si     0.375000000000     0.125000000000     0.125000000000   
O      0.431750000000     0.068250000000     0.000000000000   
O      0.409100000000     0.090900000000     0.090900000000   
Si     0.443150000000     0.056850000000     0.056850000000   
Si     0.375000000000     0.375000000000     0.125000000000   
O      0.431750000000     0.431750000000     0.000000000000   
O      0.409100000000     0.409100000000     0.090900000000   
Si     0.443150000000     0.443150000000     0.056850000000   
Si     0.125000000000     0.375000000000     0.125000000000   
O      0.068250000000     0.431750000000     0.000000000000   
O      0.090900000000     0.409100000000     0.090900000000   
Si     0.056850000000     0.443150000000     0.056850000000   
Si     0.125000000000     0.125000000000     0.125000000000   
O      0.090900000000     0.409100000000     0.409100000000   
Si     0.056850000000     0.443150000000     0.443150000000   
Si     0.375000000000     0.375000000000     0.375000000000   
O      0.090900000000     0.090900000000     0.409100000000   
Si     0.056850000000     0.056850000000     0.443150000000   
Si     0.125000000000     0.375000000000     0.375000000000   
O      0.409100000000     0.090900000000     0.409100000000   
Si     0.443150000000     0.056850000000     0.443150000000   
Si     0.125000000000     0.125000000000     0.375000000000   
O      0.409100000000     0.409100000000     0.409100000000   
Si     0.443150000000     0.443150000000     0.443150000000   
Si     0.375000000000     0.125000000000     0.375000000000   
O      0.000000000000     0.068250000000     0.068250000000   
O      0.431750000000     0.000000000000     0.068250000000   
O      0.000000000000     0.431750000000     0.068250000000   
O      0.068250000000     0.000000000000     0.068250000000   
O      0.000000000000     0.431750000000     0.431750000000   
O      0.068250000000     0.000000000000     0.431750000000   
O      0.000000000000     0.068250000000     0.431750000000   
O      0.431750000000     0.000000000000     0.431750000000   
O      0.068250000000     0.318250000000     0.250000000000   
O      0.090900000000     0.340900000000     0.340900000000   
Si     0.056850000000     0.306850000000     0.306850000000   
O      0.431750000000     0.318250000000     0.250000000000   
O      0.409100000000     0.340900000000     0.340900000000   
Si     0.443150000000     0.306850000000     0.306850000000   
O      0.431750000000     0.181750000000     0.250000000000   
O      0.409100000000     0.159100000000     0.340900000000   
Si     0.443150000000     0.193150000000     0.306850000000   
O      0.068250000000     0.181750000000     0.250000000000   
O      0.090900000000     0.159100000000     0.340900000000   
Si     0.056850000000     0.193150000000     0.306850000000   
O      0.090900000000     0.159100000000     0.159100000000   
Si     0.056850000000     0.193150000000     0.193150000000   
O      0.090900000000     0.340900000000     0.159100000000   
Si     0.056850000000     0.306850000000     0.193150000000   
O      0.409100000000     0.340900000000     0.159100000000   
Si     0.443150000000     0.306850000000     0.193150000000   
O      0.409100000000     0.159100000000     0.159100000000   
Si     0.443150000000     0.193150000000     0.193150000000   
O      0.000000000000     0.318250000000     0.318250000000   
O      0.431750000000     0.250000000000     0.318250000000   
O      0.000000000000     0.181750000000     0.318250000000   
O      0.068250000000     0.250000000000     0.318250000000   
O      0.000000000000     0.181750000000     0.181750000000   
O      0.068250000000     0.250000000000     0.181750000000   
O      0.000000000000     0.318250000000     0.181750000000   
O      0.431750000000     0.250000000000     0.181750000000   
O      0.318250000000     0.068250000000     0.250000000000   
O      0.340900000000     0.090900000000     0.340900000000   
Si     0.306850000000     0.056850000000     0.306850000000   
O      0.181750000000     0.068250000000     0.250000000000   
O      0.159100000000     0.090900000000     0.340900000000   
Si     0.193150000000     0.056850000000     0.306850000000   
O      0.181750000000     0.431750000000     0.250000000000   
O      0.159100000000     0.409100000000     0.340900000000   
Si     0.193150000000     0.443150000000     0.306850000000   
O      0.318250000000     0.431750000000     0.250000000000   
O      0.340900000000     0.409100000000     0.340900000000   
Si     0.306850000000     0.443150000000     0.306850000000   
O      0.340900000000     0.409100000000     0.159100000000   
Si     0.306850000000     0.443150000000     0.193150000000   
O      0.340900000000     0.090900000000     0.159100000000   
Si     0.306850000000     0.056850000000     0.193150000000   
O      0.159100000000     0.090900000000     0.159100000000   
Si     0.193150000000     0.056850000000     0.193150000000   
O      0.159100000000     0.409100000000     0.159100000000   
Si     0.193150000000     0.443150000000     0.193150000000   
O      0.250000000000     0.068250000000     0.318250000000   
O      0.181750000000     0.000000000000     0.318250000000   
O      0.250000000000     0.431750000000     0.318250000000   
O      0.318250000000     0.000000000000     0.318250000000   
O      0.250000000000     0.431750000000     0.181750000000   
O      0.318250000000     0.000000000000     0.181750000000   
O      0.250000000000     0.068250000000     0.181750000000   
O      0.181750000000     0.000000000000     0.181750000000   
O      0.318250000000     0.318250000000     0.000000000000   
O      0.340900000000     0.340900000000     0.090900000000   
Si     0.306850000000     0.306850000000     0.056850000000   
O      0.181750000000     0.318250000000     0.000000000000   
O      0.159100000000     0.340900000000     0.090900000000   
Si     0.193150000000     0.306850000000     0.056850000000   
O      0.181750000000     0.181750000000     0.000000000000   
O      0.159100000000     0.159100000000     0.090900000000   
Si     0.193150000000     0.193150000000     0.056850000000   
O      0.318250000000     0.181750000000     0.000000000000   
O      0.340900000000     0.159100000000     0.090900000000   
Si     0.306850000000     0.193150000000     0.056850000000   
O      0.340900000000     0.159100000000     0.409100000000   
Si     0.306850000000     0.193150000000     0.443150000000   
O      0.340900000000     0.340900000000     0.409100000000   
Si     0.306850000000     0.306850000000     0.443150000000   
O      0.159100000000     0.340900000000     0.409100000000   
Si     0.193150000000     0.306850000000     0.443150000000   
O      0.159100000000     0.159100000000     0.409100000000   
Si     0.193150000000     0.193150000000     0.443150000000   
O      0.250000000000     0.318250000000     0.068250000000   
O      0.181750000000     0.250000000000     0.068250000000   
O      0.250000000000     0.181750000000     0.068250000000   
O      0.318250000000     0.250000000000     0.068250000000   
O      0.250000000000     0.181750000000     0.431750000000   
O      0.318250000000     0.250000000000     0.431750000000   
O      0.250000000000     0.318250000000     0.431750000000   
O      0.181750000000     0.250000000000     0.431750000000   
O      0.068250000000     0.068250000000     0.500000000000   
O      0.090900000000     0.090900000000     0.590900000000   
Si     0.056850000000     0.056850000000     0.556850000000   
Si     0.375000000000     0.125000000000     0.625000000000   
O      0.431750000000     0.068250000000     0.500000000000   
O      0.409100000000     0.090900000000     0.590900000000   
Si     0.443150000000     0.056850000000     0.556850000000   
Si     0.375000000000     0.375000000000     0.625000000000   
O      0.431750000000     0.431750000000     0.500000000000   
O      0.409100000000     0.409100000000     0.590900000000   
Si     0.443150000000     0.443150000000     0.556850000000   
Si     0.125000000000     0.375000000000     0.625000000000   
O      0.068250000000     0.431750000000     0.500000000000   
O      0.090900000000     0.409100000000     0.590900000000   
Si     0.056850000000     0.443150000000     0.556850000000   
Si     0.125000000000     0.125000000000     0.625000000000   
O      0.090900000000     0.409100000000     0.909100000000   
Si     0.056850000000     0.443150000000     0.943150000000   
Si     0.375000000000     0.375000000000     0.875000000000   
O      0.090900000000     0.090900000000     0.909100000000   
Si     0.056850000000     0.056850000000     0.943150000000   
Si     0.125000000000     0.375000000000     0.875000000000   
O      0.409100000000     0.090900000000     0.909100000000   
Si     0.443150000000     0.056850000000     0.943150000000   
Si     0.125000000000     0.125000000000     0.875000000000   
O      0.409100000000     0.409100000000     0.909100000000   
Si     0.443150000000     0.443150000000     0.943150000000   
Si     0.375000000000     0.125000000000     0.875000000000   
O      0.000000000000     0.068250000000     0.568250000000   
O      0.431750000000     0.000000000000     0.568250000000   
O      0.000000000000     0.431750000000     0.568250000000   
O      0.068250000000     0.000000000000     0.568250000000   
O      0.000000000000     0.431750000000     0.931750000000   
O      0.068250000000     0.000000000000     0.931750000000   
O      0.000000000000     0.068250000000     0.931750000000   
O      0.431750000000     0.000000000000     0.931750000000   
O      0.068250000000     0.318250000000     0.750000000000   
O      0.090900000000     0.340900000000     0.840900000000   
Si     0.056850000000     0.306850000000     0.806850000000   
O      0.431750000000     0.318250000000     0.750000000000   
O      0.409100000000     0.340900000000     0.840900000000   
Si     0.443150000000     0.306850000000     0.806850000000   
O      0.431750000000     0.181750000000     0.750000000000   
O      0.409100000000     0.159100000000     0.840900000000   
Si     0.443150000000     0.193150000000     0.806850000000   
O      0.068250000000     0.181750000000     0.750000000000   
O      0.090900000000     0.159100000000     0.840900000000   
Si     0.056850000000     0.193150000000     0.806850000000   
O      0.090900000000     0.159100000000     0.659100000000   
Si     0.056850000000     0.193150000000     0.693150000000   
O      0.090900000000     0.340900000000     0.659100000000   
Si     0.056850000000     0.306850000000     0.693150000000   
O      0.409100000000     0.340900000000     0.659100000000   
Si     0.443150000000     0.306850000000     0.693150000000   
O      0.409100000000     0.159100000000     0.659100000000   
Si     0.443150000000     0.193150000000     0.693150000000   
O      0.000000000000     0.318250000000     0.818250000000   
O      0.431750000000     0.250000000000     0.818250000000   
O      0.000000000000     0.181750000000     0.818250000000   
O      0.068250000000     0.250000000000     0.818250000000   
O      0.000000000000     0.181750000000     0.681750000000   
O      0.068250000000     0.250000000000     0.681750000000   
O      0.000000000000     0.318250000000     0.681750000000   
O      0.431750000000     0.250000000000     0.681750000000   
O      0.318250000000     0.068250000000     0.750000000000   
O      0.340900000000     0.090900000000     0.840900000000   
Si     0.306850000000     0.056850000000     0.806850000000   
O      0.181750000000     0.068250000000     0.750000000000   
O      0.159100000000     0.090900000000     0.840900000000   
Si     0.193150000000     0.056850000000     0.806850000000   
O      0.181750000000     0.431750000000     0.750000000000   
O      0.159100000000     0.409100000000     0.840900000000   
Si     0.193150000000     0.443150000000     0.806850000000   
O      0.318250000000     0.431750000000     0.750000000000   
O      0.340900000000     0.409100000000     0.840900000000   
Si     0.306850000000     0.443150000000     0.806850000000   
O      0.340900000000     0.409100000000     0.659100000000   
Si     0.306850000000     0.443150000000     0.693150000000   
O      0.340900000000     0.090900000000     0.659100000000   
Si     0.306850000000     0.056850000000     0.693150000000   
O      0.159100000000     0.090900000000     0.659100000000   
Si     0.193150000000     0.056850000000     0.693150000000   
O      0.159100000000     0.409100000000     0.659100000000   
Si     0.193150000000     0.443150000000     0.693150000000   
O      0.250000000000     0.068250000000     0.818250000000   
O      0.181750000000     0.000000000000     0.818250000000   
O      0.250000000000     0.431750000000     0.818250000000   
O      0.318250000000     0.000000000000     0.818250000000   
O      0.250000000000     0.431750000000     0.681750000000   
O      0.318250000000     0.000000000000     0.681750000000   
O      0.250000000000     0.068250000000     0.681750000000   
O      0.181750000000     0.000000000000     0.681750000000   
O      0.318250000000     0.318250000000     0.500000000000   
O      0.340900000000     0.340900000000     0.590900000000   
Si     0.306850000000     0.306850000000     0.556850000000   
O      0.181750000000     0.318250000000     0.500000000000   
O      0.159100000000     0.340900000000     0.590900000000   
Si     0.193150000000     0.306850000000     0.556850000000   
O      0.181750000000     0.181750000000     0.500000000000   
O      0.159100000000     0.159100000000     0.590900000000   
Si     0.193150000000     0.193150000000     0.556850000000   
O      0.318250000000     0.181750000000     0.500000000000   
O      0.340900000000     0.159100000000     0.590900000000   
Si     0.306850000000     0.193150000000     0.556850000000   
O      0.340900000000     0.159100000000     0.909100000000   
Si     0.306850000000     0.193150000000     0.943150000000   
O      0.340900000000     0.340900000000     0.909100000000   
Si     0.306850000000     0.306850000000     0.943150000000   
O      0.159100000000     0.340900000000     0.909100000000   
Si     0.193150000000     0.306850000000     0.943150000000   
O      0.159100000000     0.159100000000     0.909100000000   
Si     0.193150000000     0.193150000000     0.943150000000   
O      0.250000000000     0.318250000000     0.568250000000   
O      0.181750000000     0.250000000000     0.568250000000   
O      0.250000000000     0.181750000000     0.568250000000   
O      0.318250000000     0.250000000000     0.568250000000   
O      0.250000000000     0.181750000000     0.931750000000   
O      0.318250000000     0.250000000000     0.931750000000   
O      0.250000000000     0.318250000000     0.931750000000   
O      0.181750000000     0.250000000000     0.931750000000   
O      0.068250000000     0.568250000000     0.000000000000   
O      0.090900000000     0.590900000000     0.090900000000   
Si     0.056850000000     0.556850000000     0.056850000000   
Si     0.375000000000     0.625000000000     0.125000000000   
O      0.431750000000     0.568250000000     0.000000000000   
O      0.409100000000     0.590900000000     0.090900000000   
Si     0.443150000000     0.556850000000     0.056850000000   
Si     0.375000000000     0.875000000000     0.125000000000   
O      0.431750000000     0.931750000000     0.000000000000   
O      0.409100000000     0.909100000000     0.090900000000   
Si     0.443150000000     0.943150000000     0.056850000000   
Si     0.125000000000     0.875000000000     0.125000000000   
O      0.068250000000     0.931750000000     0.000000000000   
O      0.090900000000     0.909100000000     0.090900000000   
Si     0.056850000000     0.943150000000     0.056850000000   
Si     0.125000000000     0.625000000000     0.125000000000   
O      0.090900000000     0.909100000000     0.409100000000   
Si     0.056850000000     0.943150000000     0.443150000000   
Si     0.375000000000     0.875000000000     0.375000000000   
O      0.090900000000     0.590900000000     0.409100000000   
Si     0.056850000000     0.556850000000     0.443150000000   
Si     0.125000000000     0.875000000000     0.375000000000   
O      0.409100000000     0.590900000000     0.409100000000   
Si     0.443150000000     0.556850000000     0.443150000000   
Si     0.125000000000     0.625000000000     0.375000000000   
O      0.409100000000     0.909100000000     0.409100000000   
Si     0.443150000000     0.943150000000     0.443150000000   
Si     0.375000000000     0.625000000000     0.375000000000   
O      0.000000000000     0.568250000000     0.068250000000   
O      0.431750000000     0.500000000000     0.068250000000   
O      0.000000000000     0.931750000000     0.068250000000   
O      0.068250000000     0.500000000000     0.068250000000   
O      0.000000000000     0.931750000000     0.431750000000   
O      0.068250000000     0.500000000000     0.431750000000   
O      0.000000000000     0.568250000000     0.431750000000   
O      0.431750000000     0.500000000000     0.431750000000   
O      0.068250000000     0.818250000000     0.250000000000   
O      0.090900000000     0.840900000000     0.340900000000   
Si     0.056850000000     0.806850000000     0.306850000000   
O      0.431750000000     0.818250000000     0.250000000000   
O      0.409100000000     0.840900000000     0.340900000000   
Si     0.443150000000     0.806850000000     0.306850000000   
O      0.431750000000     0.681750000000     0.250000000000   
O      0.409100000000     0.659100000000     0.340900000000   
Si     0.443150000000     0.693150000000     0.306850000000   
O      0.068250000000     0.681750000000     0.250000000000   
O      0.090900000000     0.659100000000     0.340900000000   
Si     0.056850000000     0.693150000000     0.306850000000   
O      0.090900000000     0.659100000000     0.159100000000   
Si     0.056850000000     0.693150000000     0.193150000000   
O      0.090900000000     0.840900000000     0.159100000000   
Si     0.056850000000     0.806850000000     0.193150000000   
O      0.409100000000     0.840900000000     0.159100000000   
Si     0.443150000000     0.806850000000     0.193150000000   
O      0.409100000000     0.659100000000     0.159100000000   
Si     0.443150000000     0.693150000000     0.193150000000   
O      0.000000000000     0.818250000000     0.318250000000   
O      0.431750000000     0.750000000000     0.318250000000   
O      0.000000000000     0.681750000000     0.318250000000   
O      0.068250000000     0.750000000000     0.318250000000   
O      0.000000000000     0.681750000000     0.181750000000   
O      0.068250000000     0.750000000000     0.181750000000   
O      0.000000000000     0.818250000000     0.181750000000   
O      0.431750000000     0.750000000000     0.181750000000   
O      0.318250000000     0.568250000000     0.250000000000   
O      0.340900000000     0.590900000000     0.340900000000   
Si     0.306850000000     0.556850000000     0.306850000000   
O      0.181750000000     0.568250000000     0.250000000000   
O      0.159100000000     0.590900000000     0.340900000000   
Si     0.193150000000     0.556850000000     0.306850000000   
O      0.181750000000     0.931750000000     0.250000000000   
O      0.159100000000     0.909100000000     0.340900000000   
Si     0.193150000000     0.943150000000     0.306850000000   
O      0.318250000000     0.931750000000     0.250000000000   
O      0.340900000000     0.909100000000     0.340900000000   
Si     0.306850000000     0.943150000000     0.306850000000   
O      0.340900000000     0.909100000000     0.159100000000   
Si     0.306850000000     0.943150000000     0.193150000000   
O      0.340900000000     0.590900000000     0.159100000000   
Si     0.306850000000     0.556850000000     0.193150000000   
O      0.159100000000     0.590900000000     0.159100000000   
Si     0.193150000000     0.556850000000     0.193150000000   
O      0.159100000000     0.909100000000     0.159100000000   
Si     0.193150000000     0.943150000000     0.193150000000   
O      0.250000000000     0.568250000000     0.318250000000   
O      0.181750000000     0.500000000000     0.318250000000   
O      0.250000000000     0.931750000000     0.318250000000   
O      0.318250000000     0.500000000000     0.318250000000   
O      0.250000000000     0.931750000000     0.181750000000   
O      0.318250000000     0.500000000000     0.181750000000   
O      0.250000000000     0.568250000000     0.181750000000   
O      0.181750000000     0.500000000000     0.181750000000   
O      0.318250000000     0.818250000000     0.000000000000   
O      0.340900000000     0.840900000000     0.090900000000   
Si     0.306850000000     0.806850000000     0.056850000000   
O      0.181750000000     0.818250000000     0.000000000000   
O      0.159100000000     0.840900000000     0.090900000000   
Si     0.193150000000     0.806850000000     0.056850000000   
O      0.181750000000     0.681750000000     0.000000000000   
O      0.159100000000     0.659100000000     0.090900000000   
Si     0.193150000000     0.693150000000     0.056850000000   
O      0.318250000000     0.681750000000     0.000000000000   
O      0.340900000000     0.659100000000     0.090900000000   
Si     0.306850000000     0.693150000000     0.056850000000   
O      0.340900000000     0.659100000000     0.409100000000   
Si     0.306850000000     0.693150000000     0.443150000000   
O      0.340900000000     0.840900000000     0.409100000000   
Si     0.306850000000     0.806850000000     0.443150000000   
O      0.159100000000     0.840900000000     0.409100000000   
Si     0.193150000000     0.806850000000     0.443150000000   
O      0.159100000000     0.659100000000     0.409100000000   
Si     0.193150000000     0.693150000000     0.443150000000   
O      0.250000000000     0.818250000000     0.068250000000   
O      0.181750000000     0.750000000000     0.068250000000   
O      0.250000000000     0.681750000000     0.068250000000   
O      0.318250000000     0.750000000000     0.068250000000   
O      0.250000000000     0.681750000000     0.431750000000   
O      0.318250000000     0.750000000000     0.431750000000   
O      0.250000000000     0.818250000000     0.431750000000   
O      0.181750000000     0.750000000000     0.431750000000   
O      0.068250000000     0.568250000000     0.500000000000   
O      0.090900000000     0.590900000000     0.590900000000   
Si     0.056850000000     0.556850000000     0.556850000000   
Si     0.375000000000     0.625000000000     0.625000000000   
O      0.431750000000     0.568250000000     0.500000000000   
O      0.409100000000     0.590900000000     0.590900000000   
Si     0.443150000000     0.556850000000     0.556850000000   
Si     0.375000000000     0.875000000000     0.625000000000   
O      0.431750000000     0.931750000000     0.500000000000   
O      0.409100000000     0.909100000000     0.590900000000   
Si     0.443150000000     0.943150000000     0.556850000000   
Si     0.125000000000     0.875000000000     0.625000000000   
O      0.068250000000     0.931750000000     0.500000000000   
O      0.090900000000     0.909100000000     0.590900000000   
Si     0.056850000000     0.943150000000     0.556850000000   
Si     0.125000000000     0.625000000000     0.625000000000   
O      0.090900000000     0.909100000000     0.909100000000   
Si     0.056850000000     0.943150000000     0.943150000000   
Si     0.375000000000     0.875000000000     0.875000000000   
O      0.090900000000     0.590900000000     0.909100000000   
Si     0.056850000000     0.556850000000     0.943150000000   
Si     0.125000000000     0.875000000000     0.875000000000   
O      0.409100000000     0.590900000000     0.909100000000   
Si     0.443150000000     0.556850000000     0.943150000000   
Si     0.125000000000     0.625000000000     0.875000000000   
O      0.409100000000     0.909100000000     0.909100000000   
Si     0.443150000000     0.943150000000     0.943150000000   
Si     0.375000000000     0.625000000000     0.875000000000   
O      0.000000000000     0.568250000000     0.568250000000   
O      0.431750000000     0.500000000000     0.568250000000   
O      0.000000000000     0.931750000000     0.568250000000   
O      0.068250000000     0.500000000000     0.568250000000   
O      0.000000000000     0.931750000000     0.931750000000   
O      0.068250000000     0.500000000000     0.931750000000   
O      0.000000000000     0.568250000000     0.931750000000   
O      0.431750000000     0.500000000000     0.931750000000   
O      0.068250000000     0.818250000000     0.750000000000   
O      0.090900000000     0.840900000000     0.840900000000   
Si     0.056850000000     0.806850000000     0.806850000000   
O      0.431750000000     0.818250000000     0.750000000000   
O      0.409100000000     0.840900000000     0.840900000000   
Si     0.443150000000     0.806850000000     0.806850000000   
O      0.431750000000     0.681750000000     0.750000000000   
O      0.409100000000     0.659100000000     0.840900000000   
Si     0.443150000000     0.693150000000     0.806850000000   
O      0.068250000000     0.681750000000     0.750000000000   
O      0.090900000000     0.659100000000     0.840900000000   
Si     0.056850000000     0.693150000000     0.806850000000   
O      0.090900000000     0.659100000000     0.659100000000   
Si     0.056850000000     0.693150000000     0.693150000000   
O      0.090900000000     0.840900000000     0.659100000000   
Si     0.056850000000     0.806850000000     0.693150000000   
O      0.409100000000     0.840900000000     0.659100000000   
Si     0.443150000000     0.806850000000     0.693150000000   
O      0.409100000000     0.659100000000     0.659100000000   
Si     0.443150000000     0.693150000000     0.693150000000   
O      0.000000000000     0.818250000000     0.818250000000   
O      0.431750000000     0.750000000000     0.818250000000   
O      0.000000000000     0.681750000000     0.818250000000   
O      0.068250000000     0.750000000000     0.818250000000   
O      0.000000000000     0.681750000000     0.681750000000   
O      0.068250000000     0.750000000000     0.681750000000   
O      0.000000000000     0.818250000000     0.681750000000   
O      0.431750000000     0.750000000000     0.681750000000   
O      0.318250000000     0.568250000000     0.750000000000   
O      0.340900000000     0.590900000000     0.840900000000   
Si     0.306850000000     0.556850000000     0.806850000000   
O      0.181750000000     0.568250000000     0.750000000000   
O      0.159100000000     0.590900000000     0.840900000000   
Si     0.193150000000     0.556850000000     0.806850000000   
O      0.181750000000     0.931750000000     0.750000000000   
O      0.159100000000     0.909100000000     0.840900000000   
Si     0.193150000000     0.943150000000     0.806850000000   
O      0.318250000000     0.931750000000     0.750000000000   
O      0.340900000000     0.909100000000     0.840900000000   
Si     0.306850000000     0.943150000000     0.806850000000   
O      0.340900000000     0.909100000000     0.659100000000   
Si     0.306850000000     0.943150000000     0.693150000000   
O      0.340900000000     0.590900000000     0.659100000000   
Si     0.306850000000     0.556850000000     0.693150000000   
O      0.159100000000     0.590900000000     0.659100000000   
Si     0.193150000000     0.556850000000     0.693150000000   
O      0.159100000000     0.909100000000     0.659100000000   
Si     0.193150000000     0.943150000000     0.693150000000   
O      0.250000000000     0.568250000000     0.818250000000   
O      0.181750000000     0.500000000000     0.818250000000   
O      0.250000000000     0.931750000000     0.818250000000   
O      0.318250000000     0.500000000000     0.818250000000   
O      0.250000000000     0.931750000000     0.681750000000   
O      0.318250000000     0.500000000000     0.681750000000   
O      0.250000000000     0.568250000000     0.681750000000   
O      0.181750000000     0.500000000000     0.681750000000   
O      0.318250000000     0.818250000000     0.500000000000   
O      0.340900000000     0.840900000000     0.590900000000   
Si     0.306850000000     0.806850000000     0.556850000000   
O      0.181750000000     0.818250000000     0.500000000000   
O      0.159100000000     0.840900000000     0.590900000000   
Si     0.193150000000     0.806850000000     0.556850000000   
O      0.181750000000     0.681750000000     0.500000000000   
O      0.159100000000     0.659100000000     0.590900000000   
Si     0.193150000000     0.693150000000     0.556850000000   
O      0.318250000000     0.681750000000     0.500000000000   
O      0.340900000000     0.659100000000     0.590900000000   
Si     0.306850000000     0.693150000000     0.556850000000   
O      0.340900000000     0.659100000000     0.909100000000   
Si     0.306850000000     0.693150000000     0.943150000000   
O      0.340900000000     0.840900000000     0.909100000000   
Si     0.306850000000     0.806850000000     0.943150000000   
O      0.159100000000     0.840900000000     0.909100000000   
Si     0.193150000000     0.806850000000     0.943150000000   
O      0.159100000000     0.659100000000     0.909100000000   
Si     0.193150000000     0.693150000000     0.943150000000   