%BLOCK LATTICE_CART
ang    # angstrom units
  35.622000000000    0.000000000000     0.000000000000   
  0.000000000000     35.622000000000    0.000000000000   
  0.000000000000     0.000000000000     35.622000000000  
%ENDBLOCK LATTICE_CART

%BLOCK POSITIONS_FRAC
O      0.212900000000     0.136000000000     0.212900000000   
O      0.159800000000     0.090200000000     0.236000000000   
O      0.211800000000     0.113300000000     0.283100000000   
O      0.160400000000     0.160400000000     0.258700000000   
O      0.343000000000     0.093000000000     0.250000000000   
O      0.285100000000     0.122000000000     0.285100000000   
O      0.327000000000     0.164500000000     0.241800000000   
O      0.280400000000     0.210600000000     0.369900000000   
O      0.299500000000     0.201200000000     0.299500000000   
O      0.237400000000     0.237400000000     0.316200000000   
O      0.435100000000     0.214300000000     0.314900000000   
O      0.423700000000     0.253000000000     0.253000000000   
O      0.429500000000     0.179600000000     0.250000000000   
Si     0.186200000000     0.125000000000     0.247700000000   
Si     0.309500000000     0.123100000000     0.247100000000   
Si     0.264700000000     0.203500000000     0.328200000000   
Si     0.414600000000     0.214400000000     0.274600000000   
O      0.864000000000     0.462900000000     0.462900000000   
O      0.909800000000     0.409800000000     0.486000000000   
O      0.886700000000     0.461800000000     0.533100000000   
O      0.839600000000     0.410400000000     0.508700000000   
O      0.907000000000     0.593000000000     0.500000000000   
O      0.878000000000     0.535100000000     0.535100000000   
O      0.835500000000     0.577000000000     0.491800000000   
O      0.789400000000     0.530400000000     0.619900000000   
O      0.798800000000     0.549500000000     0.549500000000   
O      0.762600000000     0.487400000000     0.566200000000   
O      0.785700000000     0.685100000000     0.564900000000   
O      0.747000000000     0.673700000000     0.503000000000   
O      0.820400000000     0.679500000000     0.500000000000   
Si     0.875000000000     0.436200000000     0.497700000000   
Si     0.876900000000     0.559500000000     0.497100000000   
Si     0.796500000000     0.514700000000     0.578200000000   
Si     0.785600000000     0.664600000000     0.524600000000   
O      0.537100000000     0.114000000000     0.712900000000   
O      0.590200000000     0.159800000000     0.736000000000   
O      0.538200000000     0.136700000000     0.783100000000   
O      0.589600000000     0.089600000000     0.758700000000   
O      0.407000000000     0.157000000000     0.750000000000   
O      0.464900000000     0.128000000000     0.785100000000   
O      0.423000000000     0.085500000000     0.741800000000   
O      0.469600000000     0.039400000000     0.869900000000   
O      0.450500000000     0.048800000000     0.799500000000   
O      0.512600000000     0.012600000000     0.816200000000   
O      0.314900000000     0.035700000000     0.814900000000   
O      0.326300000000     0.997000000000     0.753000000000   
O      0.320500000000     0.070400000000     0.750000000000   
Si     0.563800000000     0.125000000000     0.747700000000   
Si     0.440500000000     0.126900000000     0.747100000000   
Si     0.485300000000     0.046500000000     0.828200000000   
Si     0.335400000000     0.035600000000     0.774600000000   
O      0.886000000000     0.787100000000     0.962900000000   
O      0.840200000000     0.840200000000     0.986000000000   
O      0.863300000000     0.788200000000     0.033100000000   
O      0.910400000000     0.839600000000     0.008700000000   
O      0.843000000000     0.657000000000     0.000000000000   
O      0.872000000000     0.714900000000     0.035100000000   
O      0.914500000000     0.673000000000     0.991800000000   
O      0.960600000000     0.719600000000     0.119900000000   
O      0.951200000000     0.700500000000     0.049500000000   
O      0.987400000000     0.762600000000     0.066200000000   
O      0.964300000000     0.564900000000     0.064900000000   
O      0.003000000000     0.576300000000     0.003000000000   
O      0.929600000000     0.570500000000     0.000000000000   
Si     0.875000000000     0.813800000000     0.997700000000   
Si     0.873100000000     0.690500000000     0.997100000000   
Si     0.953500000000     0.735300000000     0.078200000000   
Si     0.964400000000     0.585400000000     0.024600000000   
O      0.212900000000     0.114000000000     0.037100000000   
O      0.159800000000     0.159800000000     0.014000000000   
O      0.211800000000     0.136700000000     0.966900000000   
O      0.160400000000     0.089600000000     0.991300000000   
O      0.343000000000     0.157000000000     0.000000000000   
O      0.285100000000     0.128000000000     0.964900000000   
O      0.327000000000     0.085500000000     0.008200000000   
O      0.280400000000     0.039400000000     0.880100000000   
O      0.299500000000     0.048800000000     0.950500000000   
O      0.237400000000     0.012600000000     0.933800000000   
O      0.435100000000     0.035700000000     0.935100000000   
O      0.423700000000     0.997000000000     0.997000000000   
O      0.429500000000     0.070400000000     0.000000000000   
Si     0.186200000000     0.125000000000     0.002300000000   
Si     0.309500000000     0.126900000000     0.002900000000   
Si     0.264700000000     0.046500000000     0.921800000000   
Si     0.414600000000     0.035600000000     0.975400000000   
O      0.886000000000     0.462900000000     0.287100000000   
O      0.840200000000     0.409800000000     0.264000000000   
O      0.863300000000     0.461800000000     0.216900000000   
O      0.910400000000     0.410400000000     0.241300000000   
O      0.843000000000     0.593000000000     0.250000000000   
O      0.872000000000     0.535100000000     0.214900000000   
O      0.914500000000     0.577000000000     0.258200000000   
O      0.960600000000     0.530400000000     0.130100000000   
O      0.951200000000     0.549500000000     0.200500000000   
O      0.987400000000     0.487400000000     0.183800000000   
O      0.964300000000     0.685100000000     0.185100000000   
O      0.003000000000     0.673700000000     0.247000000000   
O      0.929600000000     0.679500000000     0.250000000000   
Si     0.875000000000     0.436200000000     0.252300000000   
Si     0.873100000000     0.559500000000     0.252900000000   
Si     0.953500000000     0.514700000000     0.171800000000   
Si     0.964400000000     0.664600000000     0.225400000000   
O      0.537100000000     0.136000000000     0.537100000000   
O      0.590200000000     0.090200000000     0.514000000000   
O      0.538200000000     0.113300000000     0.466900000000   
O      0.589600000000     0.160400000000     0.491300000000   
O      0.407000000000     0.093000000000     0.500000000000   
O      0.464900000000     0.122000000000     0.464900000000   
O      0.423000000000     0.164500000000     0.508200000000   
O      0.469600000000     0.210600000000     0.380100000000   
O      0.450500000000     0.201200000000     0.450500000000   
O      0.512600000000     0.237400000000     0.433800000000   
O      0.314900000000     0.214300000000     0.435100000000   
O      0.326300000000     0.253000000000     0.497000000000   
O      0.320500000000     0.179600000000     0.500000000000   
Si     0.563800000000     0.125000000000     0.502300000000   
Si     0.440500000000     0.123100000000     0.502900000000   
Si     0.485300000000     0.203500000000     0.421800000000   
Si     0.335400000000     0.214400000000     0.475400000000   
O      0.864000000000     0.787100000000     0.787100000000   
O      0.909800000000     0.840200000000     0.764000000000   
O      0.886700000000     0.788200000000     0.716900000000   
O      0.839600000000     0.839600000000     0.741300000000   
O      0.907000000000     0.657000000000     0.750000000000   
O      0.878000000000     0.714900000000     0.714900000000   
O      0.835500000000     0.673000000000     0.758200000000   
O      0.789400000000     0.719600000000     0.630100000000   
O      0.798800000000     0.700500000000     0.700500000000   
O      0.762600000000     0.762600000000     0.683800000000   
O      0.785700000000     0.564900000000     0.685100000000   
O      0.747000000000     0.576300000000     0.747000000000   
O      0.820400000000     0.570500000000     0.750000000000   
Si     0.875000000000     0.813800000000     0.752300000000   
Si     0.876900000000     0.690500000000     0.752900000000   
Si     0.796500000000     0.735300000000     0.671800000000   
Si     0.785600000000     0.585400000000     0.725400000000   
O      0.212900000000     0.212900000000     0.136000000000   
O      0.236000000000     0.159800000000     0.090200000000   
O      0.283100000000     0.211800000000     0.113300000000   
O      0.258700000000     0.160400000000     0.160400000000   
O      0.250000000000     0.343000000000     0.093000000000   
O      0.285100000000     0.285100000000     0.122000000000   
O      0.241800000000     0.327000000000     0.164500000000   
O      0.369900000000     0.280400000000     0.210600000000   
O      0.299500000000     0.299500000000     0.201200000000   
O      0.316200000000     0.237400000000     0.237400000000   
O      0.314900000000     0.435100000000     0.214300000000   
O      0.253000000000     0.423700000000     0.253000000000   
O      0.250000000000     0.429500000000     0.179600000000   
Si     0.247700000000     0.186200000000     0.125000000000   
Si     0.247100000000     0.309500000000     0.123100000000   
Si     0.328200000000     0.264700000000     0.203500000000   
Si     0.274600000000     0.414600000000     0.214400000000   
O      0.787100000000     0.462900000000     0.386000000000   
O      0.840200000000     0.486000000000     0.340200000000   
O      0.788200000000     0.533100000000     0.363300000000   
O      0.839600000000     0.508700000000     0.410400000000   
O      0.657000000000     0.500000000000     0.343000000000   
O      0.714900000000     0.535100000000     0.372000000000   
O      0.673000000000     0.491800000000     0.414500000000   
O      0.719600000000     0.619900000000     0.460600000000   
O      0.700500000000     0.549500000000     0.451200000000   
O      0.762600000000     0.566200000000     0.487400000000   
O      0.564900000000     0.564900000000     0.464300000000   
O      0.576300000000     0.503000000000     0.503000000000   
O      0.570500000000     0.500000000000     0.429600000000   
Si     0.813800000000     0.497700000000     0.375000000000   
Si     0.690500000000     0.497100000000     0.373100000000   
Si     0.735300000000     0.578200000000     0.453500000000   
Si     0.585400000000     0.524600000000     0.464400000000   
O      0.537100000000     0.037100000000     0.636000000000   
O      0.514000000000     0.090200000000     0.590200000000   
O      0.466900000000     0.038200000000     0.613300000000   
O      0.491300000000     0.089600000000     0.660400000000   
O      0.500000000000     0.907000000000     0.593000000000   
O      0.464900000000     0.964900000000     0.622000000000   
O      0.508200000000     0.923000000000     0.664500000000   
O      0.380100000000     0.969600000000     0.710600000000   
O      0.450500000000     0.950500000000     0.701200000000   
O      0.433800000000     0.012600000000     0.737400000000   
O      0.435100000000     0.814900000000     0.714300000000   
O      0.497000000000     0.826300000000     0.753000000000   
O      0.500000000000     0.820500000000     0.679600000000   
Si     0.502300000000     0.063800000000     0.625000000000   
Si     0.502900000000     0.940500000000     0.623100000000   
Si     0.421800000000     0.985300000000     0.703500000000   
Si     0.475400000000     0.835400000000     0.714400000000   
O      0.962900000000     0.787100000000     0.886000000000   
O      0.909800000000     0.764000000000     0.840200000000   
O      0.961800000000     0.716900000000     0.863300000000   
O      0.910400000000     0.741300000000     0.910400000000   
O      0.093000000000     0.750000000000     0.843000000000   
O      0.035100000000     0.714900000000     0.872000000000   
O      0.077000000000     0.758200000000     0.914500000000   
O      0.030400000000     0.630100000000     0.960600000000   
O      0.049500000000     0.700500000000     0.951200000000   
O      0.987400000000     0.683800000000     0.987400000000   
O      0.185100000000     0.685100000000     0.964300000000   
O      0.173700000000     0.747000000000     0.003000000000   
O      0.179500000000     0.750000000000     0.929600000000   
Si     0.936200000000     0.752300000000     0.875000000000   
Si     0.059500000000     0.752900000000     0.873100000000   
Si     0.014700000000     0.671800000000     0.953500000000   
Si     0.164600000000     0.725400000000     0.964400000000   
O      0.212900000000     0.037100000000     0.114000000000   
O      0.236000000000     0.090200000000     0.159800000000   
O      0.283100000000     0.038200000000     0.136700000000   
O      0.258700000000     0.089600000000     0.089600000000   
O      0.250000000000     0.907000000000     0.157000000000   
O      0.285100000000     0.964900000000     0.128000000000   
O      0.241800000000     0.923000000000     0.085500000000   
O      0.369900000000     0.969600000000     0.039400000000   
O      0.299500000000     0.950500000000     0.048800000000   
O      0.316200000000     0.012600000000     0.012600000000   
O      0.314900000000     0.814900000000     0.035700000000   
O      0.253000000000     0.826300000000     0.997000000000   
O      0.250000000000     0.820500000000     0.070400000000   
Si     0.247700000000     0.063800000000     0.125000000000   
Si     0.247100000000     0.940500000000     0.126900000000   
Si     0.328200000000     0.985300000000     0.046500000000   
Si     0.274600000000     0.835400000000     0.035600000000   
O      0.962900000000     0.462900000000     0.364000000000   
O      0.909800000000     0.486000000000     0.409800000000   
O      0.961800000000     0.533100000000     0.386700000000   
O      0.910400000000     0.508700000000     0.339600000000   
O      0.093000000000     0.500000000000     0.407000000000   
O      0.035100000000     0.535100000000     0.378000000000   
O      0.077000000000     0.491800000000     0.335500000000   
O      0.030400000000     0.619900000000     0.289400000000   
O      0.049500000000     0.549500000000     0.298800000000   
O      0.987400000000     0.566200000000     0.262600000000   
O      0.185100000000     0.564900000000     0.285700000000   
O      0.173700000000     0.503000000000     0.247000000000   
O      0.179500000000     0.500000000000     0.320400000000   
Si     0.936200000000     0.497700000000     0.375000000000   
Si     0.059500000000     0.497100000000     0.376900000000   
Si     0.014700000000     0.578200000000     0.296500000000   
Si     0.164600000000     0.524600000000     0.285600000000   
O      0.537100000000     0.212900000000     0.614000000000   
O      0.514000000000     0.159800000000     0.659800000000   
O      0.466900000000     0.211800000000     0.636700000000   
O      0.491300000000     0.160400000000     0.589600000000   
O      0.500000000000     0.343000000000     0.657000000000   
O      0.464900000000     0.285100000000     0.628000000000   
O      0.508200000000     0.327000000000     0.585500000000   
O      0.380100000000     0.280400000000     0.539400000000   
O      0.450500000000     0.299500000000     0.548800000000   
O      0.433800000000     0.237400000000     0.512600000000   
O      0.435100000000     0.435100000000     0.535700000000   
O      0.497000000000     0.423700000000     0.497000000000   
O      0.500000000000     0.429500000000     0.570400000000   
Si     0.502300000000     0.186200000000     0.625000000000   
Si     0.502900000000     0.309500000000     0.626900000000   
Si     0.421800000000     0.264700000000     0.546500000000   
Si     0.475400000000     0.414600000000     0.535600000000   
O      0.787100000000     0.787100000000     0.864000000000   
O      0.840200000000     0.764000000000     0.909800000000   
O      0.788200000000     0.716900000000     0.886700000000   
O      0.839600000000     0.741300000000     0.839600000000   
O      0.657000000000     0.750000000000     0.907000000000   
O      0.714900000000     0.714900000000     0.878000000000   
O      0.673000000000     0.758200000000     0.835500000000   
O      0.719600000000     0.630100000000     0.789400000000   
O      0.700500000000     0.700500000000     0.798800000000   
O      0.762600000000     0.683800000000     0.762600000000   
O      0.564900000000     0.685100000000     0.785700000000   
O      0.576300000000     0.747000000000     0.747000000000   
O      0.570500000000     0.750000000000     0.820400000000   
Si     0.813800000000     0.752300000000     0.875000000000   
Si     0.690500000000     0.752900000000     0.876900000000   
Si     0.735300000000     0.671800000000     0.796500000000   
Si     0.585400000000     0.725400000000     0.785600000000   
O      0.136000000000     0.212900000000     0.212900000000   
O      0.090200000000     0.236000000000     0.159800000000   
O      0.113300000000     0.283100000000     0.211800000000   
O      0.160400000000     0.258700000000     0.160400000000   
O      0.093000000000     0.250000000000     0.343000000000   
O      0.122000000000     0.285100000000     0.285100000000   
O      0.164500000000     0.241800000000     0.327000000000   
O      0.210600000000     0.369900000000     0.280400000000   
O      0.201200000000     0.299500000000     0.299500000000   
O      0.237400000000     0.316200000000     0.237400000000   
O      0.214300000000     0.314900000000     0.435100000000   
O      0.253000000000     0.253000000000     0.423700000000   
O      0.179600000000     0.250000000000     0.429500000000   
Si     0.125000000000     0.247700000000     0.186200000000   
Si     0.123100000000     0.247100000000     0.309500000000   
Si     0.203500000000     0.328200000000     0.264700000000   
Si     0.214400000000     0.274600000000     0.414600000000   
O      0.636000000000     0.537100000000     0.037100000000   
O      0.590200000000     0.514000000000     0.090200000000   
O      0.613300000000     0.466900000000     0.038200000000   
O      0.660400000000     0.491300000000     0.089600000000   
O      0.593000000000     0.500000000000     0.907000000000   
O      0.622000000000     0.464900000000     0.964900000000   
O      0.664500000000     0.508200000000     0.923000000000   
O      0.710600000000     0.380100000000     0.969600000000   
O      0.701200000000     0.450500000000     0.950500000000   
O      0.737400000000     0.433800000000     0.012600000000   
O      0.714300000000     0.435100000000     0.814900000000   
O      0.753000000000     0.497000000000     0.826300000000   
O      0.679600000000     0.500000000000     0.820500000000   
Si     0.625000000000     0.502300000000     0.063800000000   
Si     0.623100000000     0.502900000000     0.940500000000   
Si     0.703500000000     0.421800000000     0.985300000000   
Si     0.714400000000     0.475400000000     0.835400000000   
O      0.462900000000     0.886000000000     0.287100000000   
O      0.486000000000     0.840200000000     0.340200000000   
O      0.533100000000     0.863300000000     0.288200000000   
O      0.508700000000     0.910400000000     0.339600000000   
O      0.500000000000     0.843000000000     0.157000000000   
O      0.535100000000     0.872000000000     0.214900000000   
O      0.491800000000     0.914500000000     0.173000000000   
O      0.619900000000     0.960600000000     0.219600000000   
O      0.549500000000     0.951200000000     0.200500000000   
O      0.566200000000     0.987400000000     0.262600000000   
O      0.564900000000     0.964300000000     0.064900000000   
O      0.503000000000     0.003000000000     0.076300000000   
O      0.500000000000     0.929600000000     0.070500000000   
Si     0.497700000000     0.875000000000     0.313800000000   
Si     0.497100000000     0.873100000000     0.190500000000   
Si     0.578200000000     0.953500000000     0.235300000000   
Si     0.524600000000     0.964400000000     0.085400000000   
O      0.114000000000     0.712900000000     0.537100000000   
O      0.159800000000     0.736000000000     0.590200000000   
O      0.136700000000     0.783100000000     0.538200000000   
O      0.089600000000     0.758700000000     0.589600000000   
O      0.157000000000     0.750000000000     0.407000000000   
O      0.128000000000     0.785100000000     0.464900000000   
O      0.085500000000     0.741800000000     0.423000000000   
O      0.039400000000     0.869900000000     0.469600000000   
O      0.048800000000     0.799500000000     0.450500000000   
O      0.012600000000     0.816200000000     0.512600000000   
O      0.035700000000     0.814900000000     0.314900000000   
O      0.997000000000     0.753000000000     0.326300000000   
O      0.070400000000     0.750000000000     0.320500000000   
Si     0.125000000000     0.747700000000     0.563800000000   
Si     0.126900000000     0.747100000000     0.440500000000   
Si     0.046500000000     0.828200000000     0.485300000000   
Si     0.035600000000     0.774600000000     0.335400000000   
O      0.787100000000     0.364000000000     0.287100000000   
O      0.764000000000     0.409800000000     0.340200000000   
O      0.716900000000     0.386700000000     0.288200000000   
O      0.741300000000     0.339600000000     0.339600000000   
O      0.750000000000     0.407000000000     0.157000000000   
O      0.714900000000     0.378000000000     0.214900000000   
O      0.758200000000     0.335500000000     0.173000000000   
O      0.630100000000     0.289400000000     0.219600000000   
O      0.700500000000     0.298800000000     0.200500000000   
O      0.683800000000     0.262600000000     0.262600000000   
O      0.685100000000     0.285700000000     0.064900000000   
O      0.747000000000     0.247000000000     0.076300000000   
O      0.750000000000     0.320400000000     0.070500000000   
Si     0.752300000000     0.375000000000     0.313800000000   
Si     0.752900000000     0.376900000000     0.190500000000   
Si     0.671800000000     0.296500000000     0.235300000000   
Si     0.725400000000     0.285600000000     0.085400000000   
O      0.114000000000     0.037100000000     0.212900000000   
O      0.159800000000     0.014000000000     0.159800000000   
O      0.136700000000     0.966900000000     0.211800000000   
O      0.089600000000     0.991300000000     0.160400000000   
O      0.157000000000     0.000000000000     0.343000000000   
O      0.128000000000     0.964900000000     0.285100000000   
O      0.085500000000     0.008200000000     0.327000000000   
O      0.039400000000     0.880100000000     0.280400000000   
O      0.048800000000     0.950500000000     0.299500000000   
O      0.012600000000     0.933800000000     0.237400000000   
O      0.035700000000     0.935100000000     0.435100000000   
O      0.997000000000     0.997000000000     0.423700000000   
O      0.070400000000     0.000000000000     0.429500000000   
Si     0.125000000000     0.002300000000     0.186200000000   
Si     0.126900000000     0.002900000000     0.309500000000   
Si     0.046500000000     0.921800000000     0.264700000000   
Si     0.035600000000     0.975400000000     0.414600000000   
O      0.462900000000     0.864000000000     0.462900000000   
O      0.486000000000     0.909800000000     0.409800000000   
O      0.533100000000     0.886700000000     0.461800000000   
O      0.508700000000     0.839600000000     0.410400000000   
O      0.535100000000     0.878000000000     0.535100000000   
O      0.491800000000     0.835500000000     0.577000000000   
O      0.619900000000     0.789400000000     0.530400000000   
O      0.549500000000     0.798800000000     0.549500000000   
O      0.566200000000     0.762600000000     0.487400000000   
O      0.564900000000     0.785700000000     0.685100000000   
O      0.503000000000     0.747000000000     0.673700000000   
Si     0.497700000000     0.875000000000     0.436200000000   
Si     0.497100000000     0.876900000000     0.559500000000   
Si     0.578200000000     0.796500000000     0.514700000000   
Si     0.524600000000     0.785600000000     0.664600000000   
O      0.287100000000     0.386000000000     0.962900000000   
O      0.264000000000     0.340200000000     0.909800000000   
O      0.216900000000     0.363300000000     0.961800000000   
O      0.241300000000     0.410400000000     0.910400000000   
O      0.214900000000     0.372000000000     0.035100000000   
O      0.258200000000     0.414500000000     0.077000000000   
O      0.130100000000     0.460600000000     0.030400000000   
O      0.200500000000     0.451200000000     0.049500000000   
O      0.183800000000     0.487400000000     0.987400000000   
O      0.185100000000     0.464300000000     0.185100000000   
O      0.247000000000     0.503000000000     0.173700000000   
Si     0.252300000000     0.375000000000     0.936200000000   
Si     0.252900000000     0.373100000000     0.059500000000   
Si     0.171800000000     0.453500000000     0.014700000000   
Si     0.225400000000     0.464400000000     0.164600000000   
O      0.787100000000     0.864000000000     0.787100000000   
O      0.840200000000     0.909800000000     0.764000000000   
O      0.788200000000     0.886700000000     0.716900000000   
O      0.657000000000     0.907000000000     0.750000000000   
O      0.714900000000     0.878000000000     0.714900000000   
O      0.673000000000     0.835500000000     0.758200000000   
O      0.719600000000     0.789400000000     0.630100000000   
O      0.700500000000     0.798800000000     0.700500000000   
O      0.570500000000     0.820400000000     0.750000000000   
Si     0.813800000000     0.875000000000     0.752300000000   
Si     0.690500000000     0.876900000000     0.752900000000   
Si     0.735300000000     0.796500000000     0.671800000000   
Si     0.585400000000     0.785600000000     0.725400000000   
O      0.136000000000     0.537100000000     0.537100000000   
O      0.090200000000     0.590200000000     0.514000000000   
O      0.113300000000     0.538200000000     0.466900000000   
O      0.160400000000     0.589600000000     0.491300000000   
O      0.093000000000     0.407000000000     0.500000000000   
O      0.122000000000     0.464900000000     0.464900000000   
O      0.164500000000     0.423000000000     0.508200000000   
O      0.210600000000     0.469600000000     0.380100000000   
O      0.201200000000     0.450500000000     0.450500000000   
O      0.237400000000     0.512600000000     0.433800000000   
O      0.253000000000     0.326300000000     0.497000000000   
O      0.179600000000     0.320500000000     0.500000000000   
Si     0.125000000000     0.563800000000     0.502300000000   
Si     0.123100000000     0.440500000000     0.502900000000   
Si     0.203500000000     0.485300000000     0.421800000000   
Si     0.214400000000     0.335400000000     0.475400000000   
O      0.409800000000     0.840200000000     0.264000000000   
O      0.461800000000     0.863300000000     0.216900000000   
O      0.410400000000     0.910400000000     0.241300000000   
O      0.593000000000     0.843000000000     0.250000000000   
O      0.577000000000     0.914500000000     0.258200000000   
O      0.530400000000     0.960600000000     0.130100000000   
O      0.487400000000     0.987400000000     0.183800000000   
O      0.685100000000     0.964300000000     0.185100000000   
O      0.673700000000     0.003000000000     0.247000000000   
O      0.679500000000     0.929600000000     0.250000000000   
Si     0.436200000000     0.875000000000     0.252300000000   
Si     0.559500000000     0.873100000000     0.252900000000   
Si     0.514700000000     0.953500000000     0.171800000000   
Si     0.664600000000     0.964400000000     0.225400000000   
O      0.114000000000     0.212900000000     0.037100000000   
O      0.136700000000     0.211800000000     0.966900000000   
O      0.089600000000     0.160400000000     0.991300000000   
O      0.157000000000     0.343000000000     0.000000000000   
O      0.128000000000     0.285100000000     0.964900000000   
O      0.085500000000     0.327000000000     0.008200000000   
O      0.039400000000     0.280400000000     0.880100000000   
O      0.048800000000     0.299500000000     0.950500000000   
O      0.012600000000     0.237400000000     0.933800000000   
O      0.035700000000     0.435100000000     0.935100000000   
O      0.997000000000     0.423700000000     0.997000000000   
O      0.070400000000     0.429500000000     0.000000000000   
Si     0.125000000000     0.186200000000     0.002300000000   
Si     0.126900000000     0.309500000000     0.002900000000   
Si     0.046500000000     0.264700000000     0.921800000000   
Si     0.035600000000     0.414600000000     0.975400000000   
O      0.787100000000     0.886000000000     0.962900000000   
O      0.788200000000     0.863300000000     0.033100000000   
O      0.839600000000     0.910400000000     0.008700000000   
O      0.657000000000     0.843000000000     0.000000000000   
O      0.714900000000     0.872000000000     0.035100000000   
O      0.673000000000     0.914500000000     0.991800000000   
O      0.719600000000     0.960600000000     0.119900000000   
O      0.700500000000     0.951200000000     0.049500000000   
O      0.762600000000     0.987400000000     0.066200000000   