%BLOCK LATTICE_CART
ang    # angstrom units
  13.883000000000    0.000000000000     0.000000000000   
  0.000000000000     13.883000000000    0.000000000000   
  0.000000000000     0.000000000000     13.883000000000  
%ENDBLOCK LATTICE_CART

%BLOCK POSITIONS_FRAC
O      0.138000000000     0.138000000000     0.250000000000   
O      0.167400000000     0.100950000000     0.167400000000   
O      0.080900000000     0.080900000000     0.202800000000   
O      0.067200000000     0.000000000000     0.250000000000   
Si     0.121750000000     0.121750000000     0.196650000000   
Si     0.056950000000     0.056950000000     0.250000000000   
O      0.362000000000     0.138000000000     0.250000000000   
O      0.399050000000     0.167400000000     0.167400000000   
O      0.419100000000     0.080900000000     0.202800000000   
O      0.000000000000     0.067200000000     0.250000000000   
Si     0.378250000000     0.121750000000     0.196650000000   
Si     0.443050000000     0.056950000000     0.250000000000   
O      0.362000000000     0.362000000000     0.250000000000   
O      0.332600000000     0.399050000000     0.167400000000   
O      0.419100000000     0.419100000000     0.202800000000   
O      0.432800000000     0.000000000000     0.250000000000   
Si     0.378250000000     0.378250000000     0.196650000000   
Si     0.443050000000     0.443050000000     0.250000000000   
O      0.138000000000     0.362000000000     0.250000000000   
O      0.100950000000     0.332600000000     0.167400000000   
O      0.080900000000     0.419100000000     0.202800000000   
O      0.000000000000     0.432800000000     0.250000000000   
Si     0.121750000000     0.378250000000     0.196650000000   
Si     0.056950000000     0.443050000000     0.250000000000   
O      0.167400000000     0.399050000000     0.332600000000   
O      0.080900000000     0.419100000000     0.297200000000   
Si     0.121750000000     0.378250000000     0.303350000000   
O      0.100950000000     0.167400000000     0.332600000000   
O      0.080900000000     0.080900000000     0.297200000000   
Si     0.121750000000     0.121750000000     0.303350000000   
O      0.332600000000     0.100950000000     0.332600000000   
O      0.419100000000     0.080900000000     0.297200000000   
Si     0.378250000000     0.121750000000     0.303350000000   
O      0.399050000000     0.332600000000     0.332600000000   
O      0.419100000000     0.419100000000     0.297200000000   
Si     0.378250000000     0.378250000000     0.303350000000   
O      0.250000000000     0.138000000000     0.138000000000   
O      0.167400000000     0.167400000000     0.100950000000   
O      0.202800000000     0.080900000000     0.080900000000   
O      0.250000000000     0.067200000000     0.000000000000   
Si     0.196650000000     0.121750000000     0.121750000000   
Si     0.250000000000     0.056950000000     0.056950000000   
O      0.362000000000     0.250000000000     0.138000000000   
O      0.332600000000     0.167400000000     0.100950000000   
O      0.419100000000     0.202800000000     0.080900000000   
O      0.432800000000     0.250000000000     0.000000000000   
Si     0.378250000000     0.196650000000     0.121750000000   
Si     0.443050000000     0.250000000000     0.056950000000   
O      0.250000000000     0.362000000000     0.138000000000   
O      0.332600000000     0.332600000000     0.100950000000   
O      0.297200000000     0.419100000000     0.080900000000   
O      0.250000000000     0.432800000000     0.000000000000   
Si     0.303350000000     0.378250000000     0.121750000000   
Si     0.250000000000     0.443050000000     0.056950000000   
O      0.138000000000     0.250000000000     0.138000000000   
O      0.167400000000     0.332600000000     0.100950000000   
O      0.080900000000     0.297200000000     0.080900000000   
O      0.067200000000     0.250000000000     0.000000000000   
Si     0.121750000000     0.303350000000     0.121750000000   
Si     0.056950000000     0.250000000000     0.056950000000   
O      0.250000000000     0.362000000000     0.362000000000   
O      0.167400000000     0.332600000000     0.399050000000   
O      0.202800000000     0.419100000000     0.419100000000   
Si     0.196650000000     0.378250000000     0.378250000000   
Si     0.250000000000     0.443050000000     0.443050000000   
O      0.138000000000     0.250000000000     0.362000000000   
O      0.167400000000     0.167400000000     0.399050000000   
O      0.080900000000     0.202800000000     0.419100000000   
Si     0.121750000000     0.196650000000     0.378250000000   
Si     0.056950000000     0.250000000000     0.443050000000   
O      0.250000000000     0.138000000000     0.362000000000   
O      0.332600000000     0.167400000000     0.399050000000   
O      0.297200000000     0.080900000000     0.419100000000   
Si     0.303350000000     0.121750000000     0.378250000000   
Si     0.250000000000     0.056950000000     0.443050000000   
O      0.362000000000     0.250000000000     0.362000000000   
O      0.332600000000     0.332600000000     0.399050000000   
O      0.419100000000     0.297200000000     0.419100000000   
Si     0.378250000000     0.303350000000     0.378250000000   
Si     0.443050000000     0.250000000000     0.443050000000   
O      0.100950000000     0.167400000000     0.167400000000   
O      0.080900000000     0.202800000000     0.080900000000   
O      0.000000000000     0.250000000000     0.067200000000   
Si     0.121750000000     0.196650000000     0.121750000000   
O      0.100950000000     0.332600000000     0.332600000000   
O      0.080900000000     0.297200000000     0.419100000000   
O      0.000000000000     0.250000000000     0.432800000000   
Si     0.121750000000     0.303350000000     0.378250000000   
O      0.167400000000     0.100950000000     0.332600000000   
O      0.202800000000     0.080900000000     0.419100000000   
O      0.250000000000     0.000000000000     0.432800000000   
Si     0.196650000000     0.121750000000     0.378250000000   
O      0.399050000000     0.167400000000     0.332600000000   
O      0.419100000000     0.202800000000     0.419100000000   
Si     0.378250000000     0.196650000000     0.378250000000   
O      0.332600000000     0.399050000000     0.332600000000   
O      0.297200000000     0.419100000000     0.419100000000   
Si     0.303350000000     0.378250000000     0.378250000000   
O      0.399050000000     0.332600000000     0.167400000000   
O      0.419100000000     0.297200000000     0.080900000000   
Si     0.378250000000     0.303350000000     0.121750000000   
O      0.167400000000     0.399050000000     0.167400000000   
O      0.202800000000     0.419100000000     0.080900000000   
O      0.250000000000     0.000000000000     0.067200000000   
Si     0.196650000000     0.378250000000     0.121750000000   
O      0.332600000000     0.100950000000     0.167400000000   
O      0.297200000000     0.080900000000     0.080900000000   
Si     0.303350000000     0.121750000000     0.121750000000   
O      0.138000000000     0.138000000000     0.750000000000   
O      0.167400000000     0.100950000000     0.667400000000   
O      0.080900000000     0.080900000000     0.702800000000   
O      0.067200000000     0.000000000000     0.750000000000   
Si     0.121750000000     0.121750000000     0.696650000000   
Si     0.056950000000     0.056950000000     0.750000000000   
O      0.362000000000     0.138000000000     0.750000000000   
O      0.399050000000     0.167400000000     0.667400000000   
O      0.419100000000     0.080900000000     0.702800000000   
O      0.000000000000     0.067200000000     0.750000000000   
Si     0.378250000000     0.121750000000     0.696650000000   
Si     0.443050000000     0.056950000000     0.750000000000   
O      0.362000000000     0.362000000000     0.750000000000   
O      0.332600000000     0.399050000000     0.667400000000   
O      0.419100000000     0.419100000000     0.702800000000   
O      0.432800000000     0.000000000000     0.750000000000   
Si     0.378250000000     0.378250000000     0.696650000000   
Si     0.443050000000     0.443050000000     0.750000000000   
O      0.138000000000     0.362000000000     0.750000000000   
O      0.100950000000     0.332600000000     0.667400000000   
O      0.080900000000     0.419100000000     0.702800000000   
O      0.000000000000     0.432800000000     0.750000000000   
Si     0.121750000000     0.378250000000     0.696650000000   
Si     0.056950000000     0.443050000000     0.750000000000   
O      0.167400000000     0.399050000000     0.832600000000   
O      0.080900000000     0.419100000000     0.797200000000   
Si     0.121750000000     0.378250000000     0.803350000000   
O      0.100950000000     0.167400000000     0.832600000000   
O      0.080900000000     0.080900000000     0.797200000000   
Si     0.121750000000     0.121750000000     0.803350000000   
O      0.332600000000     0.100950000000     0.832600000000   
O      0.419100000000     0.080900000000     0.797200000000   
Si     0.378250000000     0.121750000000     0.803350000000   
O      0.399050000000     0.332600000000     0.832600000000   
O      0.419100000000     0.419100000000     0.797200000000   
Si     0.378250000000     0.378250000000     0.803350000000   
O      0.250000000000     0.138000000000     0.638000000000   
O      0.167400000000     0.167400000000     0.600950000000   
O      0.202800000000     0.080900000000     0.580900000000   
O      0.250000000000     0.067200000000     0.500000000000   
Si     0.196650000000     0.121750000000     0.621750000000   
Si     0.250000000000     0.056950000000     0.556950000000   
O      0.362000000000     0.250000000000     0.638000000000   
O      0.332600000000     0.167400000000     0.600950000000   
O      0.419100000000     0.202800000000     0.580900000000   
O      0.432800000000     0.250000000000     0.500000000000   
Si     0.378250000000     0.196650000000     0.621750000000   
Si     0.443050000000     0.250000000000     0.556950000000   
O      0.250000000000     0.362000000000     0.638000000000   
O      0.332600000000     0.332600000000     0.600950000000   
O      0.297200000000     0.419100000000     0.580900000000   
O      0.250000000000     0.432800000000     0.500000000000   
Si     0.303350000000     0.378250000000     0.621750000000   
Si     0.250000000000     0.443050000000     0.556950000000   
O      0.138000000000     0.250000000000     0.638000000000   
O      0.167400000000     0.332600000000     0.600950000000   
O      0.080900000000     0.297200000000     0.580900000000   
O      0.067200000000     0.250000000000     0.500000000000   
Si     0.121750000000     0.303350000000     0.621750000000   
Si     0.056950000000     0.250000000000     0.556950000000   
O      0.250000000000     0.362000000000     0.862000000000   
O      0.167400000000     0.332600000000     0.899050000000   
O      0.202800000000     0.419100000000     0.919100000000   
Si     0.196650000000     0.378250000000     0.878250000000   
Si     0.250000000000     0.443050000000     0.943050000000   
O      0.138000000000     0.250000000000     0.862000000000   
O      0.167400000000     0.167400000000     0.899050000000   
O      0.080900000000     0.202800000000     0.919100000000   
Si     0.121750000000     0.196650000000     0.878250000000   
Si     0.056950000000     0.250000000000     0.943050000000   
O      0.250000000000     0.138000000000     0.862000000000   
O      0.332600000000     0.167400000000     0.899050000000   
O      0.297200000000     0.080900000000     0.919100000000   
Si     0.303350000000     0.121750000000     0.878250000000   
Si     0.250000000000     0.056950000000     0.943050000000   
O      0.362000000000     0.250000000000     0.862000000000   
O      0.332600000000     0.332600000000     0.899050000000   
O      0.419100000000     0.297200000000     0.919100000000   
Si     0.378250000000     0.303350000000     0.878250000000   
Si     0.443050000000     0.250000000000     0.943050000000   
O      0.100950000000     0.167400000000     0.667400000000   
O      0.080900000000     0.202800000000     0.580900000000   
O      0.000000000000     0.250000000000     0.567200000000   
Si     0.121750000000     0.196650000000     0.621750000000   
O      0.100950000000     0.332600000000     0.832600000000   
O      0.080900000000     0.297200000000     0.919100000000   
O      0.000000000000     0.250000000000     0.932800000000   
Si     0.121750000000     0.303350000000     0.878250000000   
O      0.167400000000     0.100950000000     0.832600000000   
O      0.202800000000     0.080900000000     0.919100000000   
O      0.250000000000     0.000000000000     0.932800000000   
Si     0.196650000000     0.121750000000     0.878250000000   
O      0.399050000000     0.167400000000     0.832600000000   
O      0.419100000000     0.202800000000     0.919100000000   
Si     0.378250000000     0.196650000000     0.878250000000   
O      0.332600000000     0.399050000000     0.832600000000   
O      0.297200000000     0.419100000000     0.919100000000   
Si     0.303350000000     0.378250000000     0.878250000000   
O      0.399050000000     0.332600000000     0.667400000000   
O      0.419100000000     0.297200000000     0.580900000000   
Si     0.378250000000     0.303350000000     0.621750000000   
O      0.167400000000     0.399050000000     0.667400000000   
O      0.202800000000     0.419100000000     0.580900000000   
O      0.250000000000     0.000000000000     0.567200000000   
Si     0.196650000000     0.378250000000     0.621750000000   
O      0.332600000000     0.100950000000     0.667400000000   
O      0.297200000000     0.080900000000     0.580900000000   
Si     0.303350000000     0.121750000000     0.621750000000   
O      0.138000000000     0.638000000000     0.250000000000   
O      0.167400000000     0.600950000000     0.167400000000   
O      0.080900000000     0.580900000000     0.202800000000   
O      0.067200000000     0.500000000000     0.250000000000   
Si     0.121750000000     0.621750000000     0.196650000000   
Si     0.056950000000     0.556950000000     0.250000000000   
O      0.362000000000     0.638000000000     0.250000000000   
O      0.399050000000     0.667400000000     0.167400000000   
O      0.419100000000     0.580900000000     0.202800000000   
O      0.000000000000     0.567200000000     0.250000000000   
Si     0.378250000000     0.621750000000     0.196650000000   
Si     0.443050000000     0.556950000000     0.250000000000   
O      0.362000000000     0.862000000000     0.250000000000   
O      0.332600000000     0.899050000000     0.167400000000   
O      0.419100000000     0.919100000000     0.202800000000   
O      0.432800000000     0.500000000000     0.250000000000   
Si     0.378250000000     0.878250000000     0.196650000000   
Si     0.443050000000     0.943050000000     0.250000000000   
O      0.138000000000     0.862000000000     0.250000000000   
O      0.100950000000     0.832600000000     0.167400000000   
O      0.080900000000     0.919100000000     0.202800000000   
O      0.000000000000     0.932800000000     0.250000000000   
Si     0.121750000000     0.878250000000     0.196650000000   
Si     0.056950000000     0.943050000000     0.250000000000   
O      0.167400000000     0.899050000000     0.332600000000   
O      0.080900000000     0.919100000000     0.297200000000   
Si     0.121750000000     0.878250000000     0.303350000000   
O      0.100950000000     0.667400000000     0.332600000000   
O      0.080900000000     0.580900000000     0.297200000000   
Si     0.121750000000     0.621750000000     0.303350000000   
O      0.332600000000     0.600950000000     0.332600000000   
O      0.419100000000     0.580900000000     0.297200000000   
Si     0.378250000000     0.621750000000     0.303350000000   
O      0.399050000000     0.832600000000     0.332600000000   
O      0.419100000000     0.919100000000     0.297200000000   
Si     0.378250000000     0.878250000000     0.303350000000   
O      0.250000000000     0.638000000000     0.138000000000   
O      0.167400000000     0.667400000000     0.100950000000   
O      0.202800000000     0.580900000000     0.080900000000   
O      0.250000000000     0.567200000000     0.000000000000   
Si     0.196650000000     0.621750000000     0.121750000000   
Si     0.250000000000     0.556950000000     0.056950000000   
O      0.362000000000     0.750000000000     0.138000000000   
O      0.332600000000     0.667400000000     0.100950000000   
O      0.419100000000     0.702800000000     0.080900000000   
O      0.432800000000     0.750000000000     0.000000000000   
Si     0.378250000000     0.696650000000     0.121750000000   
Si     0.443050000000     0.750000000000     0.056950000000   
O      0.250000000000     0.862000000000     0.138000000000   
O      0.332600000000     0.832600000000     0.100950000000   
O      0.297200000000     0.919100000000     0.080900000000   
O      0.250000000000     0.932800000000     0.000000000000   
Si     0.303350000000     0.878250000000     0.121750000000   
Si     0.250000000000     0.943050000000     0.056950000000   
O      0.138000000000     0.750000000000     0.138000000000   
O      0.167400000000     0.832600000000     0.100950000000   
O      0.080900000000     0.797200000000     0.080900000000   
O      0.067200000000     0.750000000000     0.000000000000   
Si     0.121750000000     0.803350000000     0.121750000000   
Si     0.056950000000     0.750000000000     0.056950000000   
O      0.250000000000     0.862000000000     0.362000000000   
O      0.167400000000     0.832600000000     0.399050000000   
O      0.202800000000     0.919100000000     0.419100000000   
Si     0.196650000000     0.878250000000     0.378250000000   
Si     0.250000000000     0.943050000000     0.443050000000   
O      0.138000000000     0.750000000000     0.362000000000   
O      0.167400000000     0.667400000000     0.399050000000   
O      0.080900000000     0.702800000000     0.419100000000   
Si     0.121750000000     0.696650000000     0.378250000000   
Si     0.056950000000     0.750000000000     0.443050000000   
O      0.250000000000     0.638000000000     0.362000000000   
O      0.332600000000     0.667400000000     0.399050000000   
O      0.297200000000     0.580900000000     0.419100000000   
Si     0.303350000000     0.621750000000     0.378250000000   
Si     0.250000000000     0.556950000000     0.443050000000   
O      0.362000000000     0.750000000000     0.362000000000   
O      0.332600000000     0.832600000000     0.399050000000   
O      0.419100000000     0.797200000000     0.419100000000   
Si     0.378250000000     0.803350000000     0.378250000000   
Si     0.443050000000     0.750000000000     0.443050000000   
O      0.100950000000     0.667400000000     0.167400000000   
O      0.080900000000     0.702800000000     0.080900000000   
O      0.000000000000     0.750000000000     0.067200000000   
Si     0.121750000000     0.696650000000     0.121750000000   
O      0.100950000000     0.832600000000     0.332600000000   
O      0.080900000000     0.797200000000     0.419100000000   
O      0.000000000000     0.750000000000     0.432800000000   
Si     0.121750000000     0.803350000000     0.378250000000   
O      0.167400000000     0.600950000000     0.332600000000   
O      0.202800000000     0.580900000000     0.419100000000   
O      0.250000000000     0.500000000000     0.432800000000   
Si     0.196650000000     0.621750000000     0.378250000000   
O      0.399050000000     0.667400000000     0.332600000000   
O      0.419100000000     0.702800000000     0.419100000000   
Si     0.378250000000     0.696650000000     0.378250000000   
O      0.332600000000     0.899050000000     0.332600000000   
O      0.297200000000     0.919100000000     0.419100000000   
Si     0.303350000000     0.878250000000     0.378250000000   
O      0.399050000000     0.832600000000     0.167400000000   
O      0.419100000000     0.797200000000     0.080900000000   
Si     0.378250000000     0.803350000000     0.121750000000   
O      0.167400000000     0.899050000000     0.167400000000   
O      0.202800000000     0.919100000000     0.080900000000   
O      0.250000000000     0.500000000000     0.067200000000   
Si     0.196650000000     0.878250000000     0.121750000000   
O      0.332600000000     0.600950000000     0.167400000000   
O      0.297200000000     0.580900000000     0.080900000000   
Si     0.303350000000     0.621750000000     0.121750000000   
O      0.138000000000     0.638000000000     0.750000000000   
O      0.167400000000     0.600950000000     0.667400000000   
O      0.080900000000     0.580900000000     0.702800000000   
O      0.067200000000     0.500000000000     0.750000000000   
Si     0.121750000000     0.621750000000     0.696650000000   
Si     0.056950000000     0.556950000000     0.750000000000   
O      0.362000000000     0.638000000000     0.750000000000   
O      0.399050000000     0.667400000000     0.667400000000   
O      0.419100000000     0.580900000000     0.702800000000   
O      0.000000000000     0.567200000000     0.750000000000   
Si     0.378250000000     0.621750000000     0.696650000000   
Si     0.443050000000     0.556950000000     0.750000000000   
O      0.362000000000     0.862000000000     0.750000000000   
O      0.332600000000     0.899050000000     0.667400000000   
O      0.419100000000     0.919100000000     0.702800000000   
O      0.432800000000     0.500000000000     0.750000000000   
Si     0.378250000000     0.878250000000     0.696650000000   
Si     0.443050000000     0.943050000000     0.750000000000   
O      0.138000000000     0.862000000000     0.750000000000   
O      0.100950000000     0.832600000000     0.667400000000   
O      0.080900000000     0.919100000000     0.702800000000   
O      0.000000000000     0.932800000000     0.750000000000   
Si     0.121750000000     0.878250000000     0.696650000000   
Si     0.056950000000     0.943050000000     0.750000000000   
O      0.167400000000     0.899050000000     0.832600000000   
O      0.080900000000     0.919100000000     0.797200000000   
Si     0.121750000000     0.878250000000     0.803350000000   
O      0.100950000000     0.667400000000     0.832600000000   
O      0.080900000000     0.580900000000     0.797200000000   
Si     0.121750000000     0.621750000000     0.803350000000   
O      0.332600000000     0.600950000000     0.832600000000   
O      0.419100000000     0.580900000000     0.797200000000   
Si     0.378250000000     0.621750000000     0.803350000000   
O      0.399050000000     0.832600000000     0.832600000000   
O      0.419100000000     0.919100000000     0.797200000000   
Si     0.378250000000     0.878250000000     0.803350000000   
O      0.250000000000     0.638000000000     0.638000000000   
O      0.167400000000     0.667400000000     0.600950000000   
O      0.202800000000     0.580900000000     0.580900000000   
O      0.250000000000     0.567200000000     0.500000000000   
Si     0.196650000000     0.621750000000     0.621750000000   
Si     0.250000000000     0.556950000000     0.556950000000   
O      0.362000000000     0.750000000000     0.638000000000   
O      0.332600000000     0.667400000000     0.600950000000   
O      0.419100000000     0.702800000000     0.580900000000   
O      0.432800000000     0.750000000000     0.500000000000   
Si     0.378250000000     0.696650000000     0.621750000000   
Si     0.443050000000     0.750000000000     0.556950000000   
O      0.250000000000     0.862000000000     0.638000000000   
O      0.332600000000     0.832600000000     0.600950000000   
O      0.297200000000     0.919100000000     0.580900000000   
O      0.250000000000     0.932800000000     0.500000000000   
Si     0.303350000000     0.878250000000     0.621750000000   
Si     0.250000000000     0.943050000000     0.556950000000   
O      0.138000000000     0.750000000000     0.638000000000   
O      0.167400000000     0.832600000000     0.600950000000   
O      0.080900000000     0.797200000000     0.580900000000   
O      0.067200000000     0.750000000000     0.500000000000   
Si     0.121750000000     0.803350000000     0.621750000000   
Si     0.056950000000     0.750000000000     0.556950000000   
O      0.250000000000     0.862000000000     0.862000000000   
O      0.167400000000     0.832600000000     0.899050000000   
O      0.202800000000     0.919100000000     0.919100000000   
Si     0.196650000000     0.878250000000     0.878250000000   
Si     0.250000000000     0.943050000000     0.943050000000   
O      0.138000000000     0.750000000000     0.862000000000   
O      0.167400000000     0.667400000000     0.899050000000   
O      0.080900000000     0.702800000000     0.919100000000   
Si     0.121750000000     0.696650000000     0.878250000000   
Si     0.056950000000     0.750000000000     0.943050000000   
O      0.250000000000     0.638000000000     0.862000000000   
O      0.332600000000     0.667400000000     0.899050000000   
O      0.297200000000     0.580900000000     0.919100000000   
Si     0.303350000000     0.621750000000     0.878250000000   
Si     0.250000000000     0.556950000000     0.943050000000   
O      0.362000000000     0.750000000000     0.862000000000   
O      0.332600000000     0.832600000000     0.899050000000   
O      0.419100000000     0.797200000000     0.919100000000   
Si     0.378250000000     0.803350000000     0.878250000000   
Si     0.443050000000     0.750000000000     0.943050000000   
O      0.100950000000     0.667400000000     0.667400000000   
O      0.080900000000     0.702800000000     0.580900000000   
O      0.000000000000     0.750000000000     0.567200000000   
Si     0.121750000000     0.696650000000     0.621750000000   
O      0.100950000000     0.832600000000     0.832600000000   
O      0.080900000000     0.797200000000     0.919100000000   
O      0.000000000000     0.750000000000     0.932800000000   
Si     0.121750000000     0.803350000000     0.878250000000   
O      0.167400000000     0.600950000000     0.832600000000   
O      0.202800000000     0.580900000000     0.919100000000   
O      0.250000000000     0.500000000000     0.932800000000   
Si     0.196650000000     0.621750000000     0.878250000000   
O      0.399050000000     0.667400000000     0.832600000000   
O      0.419100000000     0.702800000000     0.919100000000   
Si     0.378250000000     0.696650000000     0.878250000000   
O      0.332600000000     0.899050000000     0.832600000000   
O      0.297200000000     0.919100000000     0.919100000000   
Si     0.303350000000     0.878250000000     0.878250000000   
O      0.399050000000     0.832600000000     0.667400000000   
O      0.419100000000     0.797200000000     0.580900000000   
Si     0.378250000000     0.803350000000     0.621750000000   
O      0.167400000000     0.899050000000     0.667400000000   
O      0.202800000000     0.919100000000     0.580900000000   
O      0.250000000000     0.500000000000     0.567200000000   
Si     0.196650000000     0.878250000000     0.621750000000   
O      0.332600000000     0.600950000000     0.667400000000   
O      0.297200000000     0.580900000000     0.580900000000   
Si     0.303350000000     0.621750000000     0.621750000000   
O      0.638000000000     0.138000000000     0.250000000000   
O      0.667400000000     0.100950000000     0.167400000000   
O      0.580900000000     0.080900000000     0.202800000000   
O      0.567200000000     0.000000000000     0.250000000000   
Si     0.621750000000     0.121750000000     0.196650000000   
Si     0.556950000000     0.056950000000     0.250000000000   
O      0.862000000000     0.138000000000     0.250000000000   
O      0.899050000000     0.167400000000     0.167400000000   
O      0.919100000000     0.080900000000     0.202800000000   
O      0.500000000000     0.067200000000     0.250000000000   
Si     0.878250000000     0.121750000000     0.196650000000   
Si     0.943050000000     0.056950000000     0.250000000000   
O      0.862000000000     0.362000000000     0.250000000000   
O      0.832600000000     0.399050000000     0.167400000000   
O      0.919100000000     0.419100000000     0.202800000000   
O      0.932800000000     0.000000000000     0.250000000000   
Si     0.878250000000     0.378250000000     0.196650000000   
Si     0.943050000000     0.443050000000     0.250000000000   
O      0.638000000000     0.362000000000     0.250000000000   
O      0.600950000000     0.332600000000     0.167400000000   
O      0.580900000000     0.419100000000     0.202800000000   
O      0.500000000000     0.432800000000     0.250000000000   
Si     0.621750000000     0.378250000000     0.196650000000   
Si     0.556950000000     0.443050000000     0.250000000000   
O      0.667400000000     0.399050000000     0.332600000000   
O      0.580900000000     0.419100000000     0.297200000000   
Si     0.621750000000     0.378250000000     0.303350000000   
O      0.600950000000     0.167400000000     0.332600000000   
O      0.580900000000     0.080900000000     0.297200000000   
Si     0.621750000000     0.121750000000     0.303350000000   
O      0.832600000000     0.100950000000     0.332600000000   
O      0.919100000000     0.080900000000     0.297200000000   
Si     0.878250000000     0.121750000000     0.303350000000   
O      0.899050000000     0.332600000000     0.332600000000   
O      0.919100000000     0.419100000000     0.297200000000   
Si     0.878250000000     0.378250000000     0.303350000000   
O      0.750000000000     0.138000000000     0.138000000000   
O      0.667400000000     0.167400000000     0.100950000000   
O      0.702800000000     0.080900000000     0.080900000000   
O      0.750000000000     0.067200000000     0.000000000000   