%BLOCK LATTICE_CART
ang    # angstrom units
  7.571000000000     0.000000000000     0.000000000000   
  0.000000000000     18.148000000000    0.000000000000   
  0.000000000000     0.000000000000     25.932000000000  
%ENDBLOCK LATTICE_CART

%BLOCK POSITIONS_FRAC
O      0.144175000000     0.074750000000     0.961400000000   
O      0.187500000000     0.055600000000     0.044600000000   
O      0.187500000000     0.125000000000     0.014500000000   
O      0.144175000000     0.014400000000     0.110600000000   
O      0.187500000000     0.072850000000     0.143200000000   
O      0.143975000000     0.063750000000     0.229900000000   
O      0.187500000000     0.125000000000     0.214200000000   
O      0.062500000000     0.078500000000     0.929100000000   
O      0.000625000000     0.054750000000     0.866600000000   
O      0.003550000000     0.125000000000     0.893400000000   
O      0.005425000000     0.496750000000     0.204800000000   
O      0.062500000000     0.494650000000     0.128600000000   
O      0.062500000000     0.041800000000     0.248100000000   
O      0.246400000000     0.015100000000     0.302400000000   
O      0.019025000000     0.062750000000     0.373800000000   
O      0.062500000000     0.125000000000     0.381100000000   
O      0.062500000000     0.078200000000     0.458800000000   
O      0.019100000000     0.063000000000     0.544200000000   
O      0.062500000000     0.125000000000     0.536600000000   
O      0.002375000000     0.493950000000     0.398800000000   
O      0.187500000000     0.037700000000     0.370100000000   
O      0.062500000000     0.461050000000     0.455600000000   
O      0.000000000000     0.000000000000     0.500000000000   
Si     0.011650000000     0.083300000000     0.912300000000   
Si     0.011775000000     0.487700000000     0.144500000000   
Si     0.011500000000     0.029350000000     0.246300000000   
Si     0.238675000000     0.027450000000     0.361400000000   
Si     0.011475000000     0.473250000000     0.452500000000   
Si     0.187500000000     0.082750000000     0.995600000000   
Si     0.187500000000     0.039400000000     0.102400000000   
Si     0.187500000000     0.081300000000     0.204100000000   
Si     0.062500000000     0.082150000000     0.397000000000   
Si     0.062500000000     0.082200000000     0.520500000000   
O      0.230825000000     0.175250000000     0.961400000000   
O      0.187500000000     0.194400000000     0.044600000000   
O      0.230825000000     0.235600000000     0.110600000000   
O      0.187500000000     0.177150000000     0.143200000000   
O      0.231025000000     0.186250000000     0.229900000000   
O      0.062500000000     0.171500000000     0.929100000000   
O      0.124375000000     0.195250000000     0.866600000000   
O      0.121450000000     0.125000000000     0.893400000000   
O      0.119575000000     0.253250000000     0.204800000000   
O      0.062500000000     0.255350000000     0.128600000000   
O      0.062500000000     0.208200000000     0.248100000000   
O      0.128600000000     0.234900000000     0.302400000000   
O      0.105975000000     0.187250000000     0.373800000000   
O      0.062500000000     0.171800000000     0.458800000000   
O      0.105900000000     0.187000000000     0.544200000000   
O      0.122625000000     0.256050000000     0.398800000000   
O      0.187500000000     0.212300000000     0.370100000000   
O      0.062500000000     0.288950000000     0.455600000000   
O      0.125000000000     0.250000000000     0.500000000000   
Si     0.113350000000     0.166700000000     0.912300000000   
Si     0.113225000000     0.262300000000     0.144500000000   
Si     0.113500000000     0.220650000000     0.246300000000   
Si     0.136325000000     0.222550000000     0.361400000000   
Si     0.113525000000     0.276750000000     0.452500000000   
Si     0.187500000000     0.167250000000     0.995600000000   
Si     0.187500000000     0.210600000000     0.102400000000   
Si     0.187500000000     0.168700000000     0.204100000000   
Si     0.062500000000     0.167850000000     0.397000000000   
Si     0.062500000000     0.167800000000     0.520500000000   
O      0.019175000000     0.425250000000     0.038600000000   
O      0.062500000000     0.444400000000     0.955400000000   
O      0.062500000000     0.375000000000     0.985500000000   
O      0.019175000000     0.485600000000     0.889400000000   
O      0.062500000000     0.427150000000     0.856800000000   
O      0.018975000000     0.436250000000     0.770100000000   
O      0.062500000000     0.375000000000     0.785800000000   
O      0.187500000000     0.421500000000     0.070900000000   
O      0.125625000000     0.445250000000     0.133400000000   
O      0.128550000000     0.375000000000     0.106600000000   
O      0.130425000000     0.003250000000     0.795200000000   
O      0.187500000000     0.005350000000     0.871400000000   
O      0.187500000000     0.458200000000     0.751900000000   
O      0.121400000000     0.484900000000     0.697600000000   
O      0.144025000000     0.437250000000     0.626200000000   
O      0.187500000000     0.375000000000     0.618900000000   
O      0.187500000000     0.421800000000     0.541200000000   
O      0.144100000000     0.437000000000     0.455800000000   
O      0.187500000000     0.375000000000     0.463400000000   
O      0.127375000000     0.006050000000     0.601200000000   
O      0.062500000000     0.462300000000     0.629900000000   
O      0.187500000000     0.038950000000     0.544400000000   
O      0.125000000000     0.000000000000     0.500000000000   
Si     0.136650000000     0.416700000000     0.087700000000   
Si     0.136775000000     0.012300000000     0.855500000000   
Si     0.136500000000     0.470650000000     0.753700000000   
Si     0.113675000000     0.472550000000     0.638600000000   
Si     0.136475000000     0.026750000000     0.547500000000   
Si     0.062500000000     0.417250000000     0.004400000000   
Si     0.062500000000     0.460600000000     0.897600000000   
Si     0.062500000000     0.418700000000     0.795900000000   
Si     0.187500000000     0.417850000000     0.603000000000   
Si     0.187500000000     0.417800000000     0.479500000000   
O      0.105825000000     0.324750000000     0.038600000000   
O      0.062500000000     0.305600000000     0.955400000000   
O      0.105825000000     0.264400000000     0.889400000000   
O      0.062500000000     0.322850000000     0.856800000000   
O      0.106025000000     0.313750000000     0.770100000000   
O      0.187500000000     0.328500000000     0.070900000000   
O      0.249375000000     0.304750000000     0.133400000000   
O      0.246450000000     0.375000000000     0.106600000000   
O      0.244575000000     0.246750000000     0.795200000000   
O      0.187500000000     0.244650000000     0.871400000000   
O      0.187500000000     0.291800000000     0.751900000000   
O      0.003600000000     0.265100000000     0.697600000000   
O      0.230975000000     0.312750000000     0.626200000000   
O      0.187500000000     0.328200000000     0.541200000000   
O      0.230900000000     0.313000000000     0.455800000000   
O      0.247625000000     0.243950000000     0.601200000000   
O      0.062500000000     0.287700000000     0.629900000000   
O      0.187500000000     0.211050000000     0.544400000000   
O      0.000000000000     0.250000000000     0.500000000000   
Si     0.238350000000     0.333300000000     0.087700000000   
Si     0.238225000000     0.237700000000     0.855500000000   
Si     0.238500000000     0.279350000000     0.753700000000   
Si     0.011325000000     0.277450000000     0.638600000000   
Si     0.238525000000     0.223250000000     0.547500000000   
Si     0.062500000000     0.332750000000     0.004400000000   
Si     0.062500000000     0.289400000000     0.897600000000   
Si     0.062500000000     0.331300000000     0.795900000000   
Si     0.187500000000     0.332150000000     0.603000000000   
Si     0.187500000000     0.332200000000     0.479500000000   
O      0.105825000000     0.425250000000     0.038600000000   
O      0.105825000000     0.485600000000     0.889400000000   
O      0.106025000000     0.436250000000     0.770100000000   
O      0.249375000000     0.445250000000     0.133400000000   
O      0.244575000000     0.003250000000     0.795200000000   
O      0.003600000000     0.484900000000     0.697600000000   
O      0.230975000000     0.437250000000     0.626200000000   
O      0.230900000000     0.437000000000     0.455800000000   
O      0.247625000000     0.006050000000     0.601200000000   
Si     0.238350000000     0.416700000000     0.087700000000   
Si     0.238225000000     0.012300000000     0.855500000000   
Si     0.238500000000     0.470650000000     0.753700000000   
Si     0.011325000000     0.472550000000     0.638600000000   
Si     0.238525000000     0.026750000000     0.547500000000   
O      0.019175000000     0.324750000000     0.038600000000   
O      0.019175000000     0.264400000000     0.889400000000   
O      0.018975000000     0.313750000000     0.770100000000   
O      0.125625000000     0.304750000000     0.133400000000   
O      0.130425000000     0.246750000000     0.795200000000   
O      0.121400000000     0.265100000000     0.697600000000   
O      0.144025000000     0.312750000000     0.626200000000   
O      0.144100000000     0.313000000000     0.455800000000   
O      0.127375000000     0.243950000000     0.601200000000   
Si     0.136650000000     0.333300000000     0.087700000000   
Si     0.136775000000     0.237700000000     0.855500000000   
Si     0.136500000000     0.279350000000     0.753700000000   
Si     0.113675000000     0.277450000000     0.638600000000   
Si     0.136475000000     0.223250000000     0.547500000000   
O      0.230825000000     0.074750000000     0.961400000000   
O      0.230825000000     0.014400000000     0.110600000000   
O      0.231025000000     0.063750000000     0.229900000000   
O      0.124375000000     0.054750000000     0.866600000000   
O      0.119575000000     0.496750000000     0.204800000000   
O      0.128600000000     0.015100000000     0.302400000000   
O      0.105975000000     0.062750000000     0.373800000000   
O      0.105900000000     0.063000000000     0.544200000000   
O      0.122625000000     0.493950000000     0.398800000000   
Si     0.113350000000     0.083300000000     0.912300000000   
Si     0.113225000000     0.487700000000     0.144500000000   
Si     0.113500000000     0.029350000000     0.246300000000   
Si     0.136325000000     0.027450000000     0.361400000000   
Si     0.113525000000     0.473250000000     0.452500000000   
O      0.144175000000     0.175250000000     0.961400000000   
O      0.144175000000     0.235600000000     0.110600000000   
O      0.143975000000     0.186250000000     0.229900000000   
O      0.000625000000     0.195250000000     0.866600000000   
O      0.005425000000     0.253250000000     0.204800000000   
O      0.246400000000     0.234900000000     0.302400000000   
O      0.019025000000     0.187250000000     0.373800000000   
O      0.019100000000     0.187000000000     0.544200000000   
O      0.002375000000     0.256050000000     0.398800000000   
Si     0.011650000000     0.166700000000     0.912300000000   
Si     0.011775000000     0.262300000000     0.144500000000   
Si     0.011500000000     0.220650000000     0.246300000000   
Si     0.238675000000     0.222550000000     0.361400000000   
Si     0.011475000000     0.276750000000     0.452500000000   
O      0.144175000000     0.574750000000     0.961400000000   
O      0.187500000000     0.555600000000     0.044600000000   
O      0.187500000000     0.625000000000     0.014500000000   
O      0.144175000000     0.514400000000     0.110600000000   
O      0.187500000000     0.572850000000     0.143200000000   
O      0.143975000000     0.563750000000     0.229900000000   
O      0.187500000000     0.625000000000     0.214200000000   
O      0.062500000000     0.578500000000     0.929100000000   
O      0.000625000000     0.554750000000     0.866600000000   
O      0.003550000000     0.625000000000     0.893400000000   
O      0.005425000000     0.996750000000     0.204800000000   
O      0.062500000000     0.994650000000     0.128600000000   
O      0.062500000000     0.541800000000     0.248100000000   
O      0.246400000000     0.515100000000     0.302400000000   
O      0.019025000000     0.562750000000     0.373800000000   
O      0.062500000000     0.625000000000     0.381100000000   
O      0.062500000000     0.578200000000     0.458800000000   
O      0.019100000000     0.563000000000     0.544200000000   
O      0.062500000000     0.625000000000     0.536600000000   
O      0.002375000000     0.993950000000     0.398800000000   
O      0.187500000000     0.537700000000     0.370100000000   
O      0.062500000000     0.961050000000     0.455600000000   
O      0.000000000000     0.500000000000     0.500000000000   
Si     0.011650000000     0.583300000000     0.912300000000   
Si     0.011775000000     0.987700000000     0.144500000000   
Si     0.011500000000     0.529350000000     0.246300000000   
Si     0.238675000000     0.527450000000     0.361400000000   
Si     0.011475000000     0.973250000000     0.452500000000   
Si     0.187500000000     0.582750000000     0.995600000000   
Si     0.187500000000     0.539400000000     0.102400000000   
Si     0.187500000000     0.581300000000     0.204100000000   
Si     0.062500000000     0.582150000000     0.397000000000   
Si     0.062500000000     0.582200000000     0.520500000000   
O      0.230825000000     0.675250000000     0.961400000000   
O      0.187500000000     0.694400000000     0.044600000000   
O      0.230825000000     0.735600000000     0.110600000000   
O      0.187500000000     0.677150000000     0.143200000000   
O      0.231025000000     0.686250000000     0.229900000000   
O      0.062500000000     0.671500000000     0.929100000000   
O      0.124375000000     0.695250000000     0.866600000000   
O      0.121450000000     0.625000000000     0.893400000000   
O      0.119575000000     0.753250000000     0.204800000000   
O      0.062500000000     0.755350000000     0.128600000000   
O      0.062500000000     0.708200000000     0.248100000000   
O      0.128600000000     0.734900000000     0.302400000000   
O      0.105975000000     0.687250000000     0.373800000000   
O      0.062500000000     0.671800000000     0.458800000000   
O      0.105900000000     0.687000000000     0.544200000000   
O      0.122625000000     0.756050000000     0.398800000000   
O      0.187500000000     0.712300000000     0.370100000000   
O      0.062500000000     0.788950000000     0.455600000000   
O      0.125000000000     0.750000000000     0.500000000000   
Si     0.113350000000     0.666700000000     0.912300000000   
Si     0.113225000000     0.762300000000     0.144500000000   
Si     0.113500000000     0.720650000000     0.246300000000   
Si     0.136325000000     0.722550000000     0.361400000000   
Si     0.113525000000     0.776750000000     0.452500000000   
Si     0.187500000000     0.667250000000     0.995600000000   
Si     0.187500000000     0.710600000000     0.102400000000   
Si     0.187500000000     0.668700000000     0.204100000000   
Si     0.062500000000     0.667850000000     0.397000000000   
Si     0.062500000000     0.667800000000     0.520500000000   
O      0.019175000000     0.925250000000     0.038600000000   
O      0.062500000000     0.944400000000     0.955400000000   
O      0.062500000000     0.875000000000     0.985500000000   
O      0.019175000000     0.985600000000     0.889400000000   
O      0.062500000000     0.927150000000     0.856800000000   
O      0.018975000000     0.936250000000     0.770100000000   
O      0.062500000000     0.875000000000     0.785800000000   
O      0.187500000000     0.921500000000     0.070900000000   
O      0.125625000000     0.945250000000     0.133400000000   
O      0.128550000000     0.875000000000     0.106600000000   
O      0.130425000000     0.503250000000     0.795200000000   
O      0.187500000000     0.505350000000     0.871400000000   
O      0.187500000000     0.958200000000     0.751900000000   
O      0.121400000000     0.984900000000     0.697600000000   
O      0.144025000000     0.937250000000     0.626200000000   
O      0.187500000000     0.875000000000     0.618900000000   
O      0.187500000000     0.921800000000     0.541200000000   
O      0.144100000000     0.937000000000     0.455800000000   
O      0.187500000000     0.875000000000     0.463400000000   
O      0.127375000000     0.506050000000     0.601200000000   
O      0.062500000000     0.962300000000     0.629900000000   
O      0.187500000000     0.538950000000     0.544400000000   
O      0.125000000000     0.500000000000     0.500000000000   
Si     0.136650000000     0.916700000000     0.087700000000   
Si     0.136775000000     0.512300000000     0.855500000000   
Si     0.136500000000     0.970650000000     0.753700000000   
Si     0.113675000000     0.972550000000     0.638600000000   
Si     0.136475000000     0.526750000000     0.547500000000   
Si     0.062500000000     0.917250000000     0.004400000000   
Si     0.062500000000     0.960600000000     0.897600000000   
Si     0.062500000000     0.918700000000     0.795900000000   
Si     0.187500000000     0.917850000000     0.603000000000   
Si     0.187500000000     0.917800000000     0.479500000000   
O      0.105825000000     0.824750000000     0.038600000000   
O      0.062500000000     0.805600000000     0.955400000000   
O      0.105825000000     0.764400000000     0.889400000000   
O      0.062500000000     0.822850000000     0.856800000000   
O      0.106025000000     0.813750000000     0.770100000000   
O      0.187500000000     0.828500000000     0.070900000000   
O      0.249375000000     0.804750000000     0.133400000000   
O      0.246450000000     0.875000000000     0.106600000000   
O      0.244575000000     0.746750000000     0.795200000000   
O      0.187500000000     0.744650000000     0.871400000000   
O      0.187500000000     0.791800000000     0.751900000000   
O      0.003600000000     0.765100000000     0.697600000000   
O      0.230975000000     0.812750000000     0.626200000000   
O      0.187500000000     0.828200000000     0.541200000000   
O      0.230900000000     0.813000000000     0.455800000000   
O      0.247625000000     0.743950000000     0.601200000000   
O      0.062500000000     0.787700000000     0.629900000000   
O      0.187500000000     0.711050000000     0.544400000000   
O      0.000000000000     0.750000000000     0.500000000000   
Si     0.238350000000     0.833300000000     0.087700000000   
Si     0.238225000000     0.737700000000     0.855500000000   
Si     0.238500000000     0.779350000000     0.753700000000   
Si     0.011325000000     0.777450000000     0.638600000000   
Si     0.238525000000     0.723250000000     0.547500000000   
Si     0.062500000000     0.832750000000     0.004400000000   
Si     0.062500000000     0.789400000000     0.897600000000   
Si     0.062500000000     0.831300000000     0.795900000000   
Si     0.187500000000     0.832150000000     0.603000000000   
Si     0.187500000000     0.832200000000     0.479500000000   
O      0.105825000000     0.925250000000     0.038600000000   
O      0.105825000000     0.985600000000     0.889400000000   
O      0.106025000000     0.936250000000     0.770100000000   
O      0.249375000000     0.945250000000     0.133400000000   
O      0.244575000000     0.503250000000     0.795200000000   
O      0.003600000000     0.984900000000     0.697600000000   
O      0.230975000000     0.937250000000     0.626200000000   
O      0.230900000000     0.937000000000     0.455800000000   
O      0.247625000000     0.506050000000     0.601200000000   
Si     0.238350000000     0.916700000000     0.087700000000   
Si     0.238225000000     0.512300000000     0.855500000000   
Si     0.238500000000     0.970650000000     0.753700000000   
Si     0.011325000000     0.972550000000     0.638600000000   
Si     0.238525000000     0.526750000000     0.547500000000   
O      0.019175000000     0.824750000000     0.038600000000   
O      0.019175000000     0.764400000000     0.889400000000   
O      0.018975000000     0.813750000000     0.770100000000   
O      0.125625000000     0.804750000000     0.133400000000   
O      0.130425000000     0.746750000000     0.795200000000   
O      0.121400000000     0.765100000000     0.697600000000   
O      0.144025000000     0.812750000000     0.626200000000   
O      0.144100000000     0.813000000000     0.455800000000   
O      0.127375000000     0.743950000000     0.601200000000   
Si     0.136650000000     0.833300000000     0.087700000000   
Si     0.136775000000     0.737700000000     0.855500000000   
Si     0.136500000000     0.779350000000     0.753700000000   
Si     0.113675000000     0.777450000000     0.638600000000   
Si     0.136475000000     0.723250000000     0.547500000000   
O      0.230825000000     0.574750000000     0.961400000000   
O      0.230825000000     0.514400000000     0.110600000000   
O      0.231025000000     0.563750000000     0.229900000000   
O      0.124375000000     0.554750000000     0.866600000000   
O      0.119575000000     0.996750000000     0.204800000000   
O      0.128600000000     0.515100000000     0.302400000000   
O      0.105975000000     0.562750000000     0.373800000000   
O      0.105900000000     0.563000000000     0.544200000000   
O      0.122625000000     0.993950000000     0.398800000000   
Si     0.113350000000     0.583300000000     0.912300000000   
Si     0.113225000000     0.987700000000     0.144500000000   
Si     0.113500000000     0.529350000000     0.246300000000   
Si     0.136325000000     0.527450000000     0.361400000000   
Si     0.113525000000     0.973250000000     0.452500000000   
O      0.144175000000     0.675250000000     0.961400000000   
O      0.144175000000     0.735600000000     0.110600000000   
O      0.143975000000     0.686250000000     0.229900000000   
O      0.000625000000     0.695250000000     0.866600000000   
O      0.005425000000     0.753250000000     0.204800000000   
O      0.246400000000     0.734900000000     0.302400000000   
O      0.019025000000     0.687250000000     0.373800000000   
O      0.019100000000     0.687000000000     0.544200000000   
O      0.002375000000     0.756050000000     0.398800000000   
Si     0.011650000000     0.666700000000     0.912300000000   
Si     0.011775000000     0.762300000000     0.144500000000   
Si     0.011500000000     0.720650000000     0.246300000000   
Si     0.238675000000     0.722550000000     0.361400000000   
Si     0.011475000000     0.776750000000     0.452500000000   
O      0.394175000000     0.074750000000     0.961400000000   
O      0.437500000000     0.055600000000     0.044600000000   
O      0.437500000000     0.125000000000     0.014500000000   
O      0.394175000000     0.014400000000     0.110600000000   
O      0.437500000000     0.072850000000     0.143200000000   
O      0.393975000000     0.063750000000     0.229900000000   
O      0.437500000000     0.125000000000     0.214200000000   
O      0.312500000000     0.078500000000     0.929100000000   
O      0.250625000000     0.054750000000     0.866600000000   
O      0.253550000000     0.125000000000     0.893400000000   
O      0.255425000000     0.496750000000     0.204800000000   
O      0.312500000000     0.494650000000     0.128600000000   
O      0.312500000000     0.041800000000     0.248100000000   
O      0.496400000000     0.015100000000     0.302400000000   
O      0.269025000000     0.062750000000     0.373800000000   
O      0.312500000000     0.125000000000     0.381100000000   
O      0.312500000000     0.078200000000     0.458800000000   
O      0.269100000000     0.063000000000     0.544200000000   
O      0.312500000000     0.125000000000     0.536600000000   
O      0.252375000000     0.493950000000     0.398800000000   
O      0.437500000000     0.037700000000     0.370100000000   
O      0.312500000000     0.461050000000     0.455600000000   
O      0.250000000000     0.000000000000     0.500000000000   
Si     0.261650000000     0.083300000000     0.912300000000   
Si     0.261775000000     0.487700000000     0.144500000000   
Si     0.261500000000     0.029350000000     0.246300000000   
Si     0.488675000000     0.027450000000     0.361400000000   
Si     0.261475000000     0.473250000000     0.452500000000   
Si     0.437500000000     0.082750000000     0.995600000000   
Si     0.437500000000     0.039400000000     0.102400000000   
Si     0.437500000000     0.081300000000     0.204100000000   
Si     0.312500000000     0.082150000000     0.397000000000   
Si     0.312500000000     0.082200000000     0.520500000000   
O      0.480825000000     0.175250000000     0.961400000000   
O      0.437500000000     0.194400000000     0.044600000000   
O      0.480825000000     0.235600000000     0.110600000000   
O      0.437500000000     0.177150000000     0.143200000000   
O      0.481025000000     0.186250000000     0.229900000000   
O      0.312500000000     0.171500000000     0.929100000000   
O      0.374375000000     0.195250000000     0.866600000000   
O      0.371450000000     0.125000000000     0.893400000000   
O      0.369575000000     0.253250000000     0.204800000000   
O      0.312500000000     0.255350000000     0.128600000000   
O      0.312500000000     0.208200000000     0.248100000000   
O      0.378600000000     0.234900000000     0.302400000000   
O      0.355975000000     0.187250000000     0.373800000000   
O      0.312500000000     0.171800000000     0.458800000000   
O      0.355900000000     0.187000000000     0.544200000000   
O      0.372625000000     0.256050000000     0.398800000000   
O      0.437500000000     0.212300000000     0.370100000000   
O      0.312500000000     0.288950000000     0.455600000000   
O      0.375000000000     0.250000000000     0.500000000000   
Si     0.363350000000     0.166700000000     0.912300000000   
Si     0.363225000000     0.262300000000     0.144500000000   
Si     0.363500000000     0.220650000000     0.246300000000   
Si     0.386325000000     0.222550000000     0.361400000000   
Si     0.363525000000     0.276750000000     0.452500000000   
Si     0.437500000000     0.167250000000     0.995600000000   
Si     0.437500000000     0.210600000000     0.102400000000   
Si     0.437500000000     0.168700000000     0.204100000000   
Si     0.312500000000     0.167850000000     0.397000000000   
Si     0.312500000000     0.167800000000     0.520500000000   
O      0.269175000000     0.425250000000     0.038600000000   
O      0.312500000000     0.444400000000     0.955400000000   
O      0.312500000000     0.375000000000     0.985500000000   
O      0.269175000000     0.485600000000     0.889400000000   
O      0.312500000000     0.427150000000     0.856800000000   
O      0.268975000000     0.436250000000     0.770100000000   
O      0.312500000000     0.375000000000     0.785800000000   
O      0.437500000000     0.421500000000     0.070900000000   
O      0.375625000000     0.445250000000     0.133400000000   
O      0.378550000000     0.375000000000     0.106600000000   
O      0.380425000000     0.003250000000     0.795200000000   
O      0.437500000000     0.005350000000     0.871400000000   
O      0.437500000000     0.458200000000     0.751900000000   
O      0.371400000000     0.484900000000     0.697600000000   
O      0.394025000000     0.437250000000     0.626200000000   
O      0.437500000000     0.375000000000     0.618900000000   
O      0.437500000000     0.421800000000     0.541200000000   
O      0.394100000000     0.437000000000     0.455800000000   
O      0.437500000000     0.375000000000     0.463400000000   
O      0.377375000000     0.006050000000     0.601200000000   
O      0.312500000000     0.462300000000     0.629900000000   
O      0.437500000000     0.038950000000     0.544400000000   
O      0.375000000000     0.000000000000     0.500000000000   
Si     0.386650000000     0.416700000000     0.087700000000   
Si     0.386775000000     0.012300000000     0.855500000000   
Si     0.386500000000     0.470650000000     0.753700000000   
Si     0.363675000000     0.472550000000     0.638600000000   
Si     0.386475000000     0.026750000000     0.547500000000   
Si     0.312500000000     0.417250000000     0.004400000000   
Si     0.312500000000     0.460600000000     0.897600000000   
Si     0.312500000000     0.418700000000     0.795900000000   
Si     0.437500000000     0.417850000000     0.603000000000   
Si     0.437500000000     0.417800000000     0.479500000000   
O      0.355825000000     0.324750000000     0.038600000000   
O      0.312500000000     0.305600000000     0.955400000000   
O      0.355825000000     0.264400000000     0.889400000000   
O      0.312500000000     0.322850000000     0.856800000000   
O      0.356025000000     0.313750000000     0.770100000000   
O      0.437500000000     0.328500000000     0.070900000000   
O      0.499375000000     0.304750000000     0.133400000000   
O      0.496450000000     0.375000000000     0.106600000000   
O      0.494575000000     0.246750000000     0.795200000000   
O      0.437500000000     0.244650000000     0.871400000000   
O      0.437500000000     0.291800000000     0.751900000000   
O      0.253600000000     0.265100000000     0.697600000000   
O      0.480975000000     0.312750000000     0.626200000000   
O      0.437500000000     0.328200000000     0.541200000000   
O      0.480900000000     0.313000000000     0.455800000000   
O      0.497625000000     0.243950000000     0.601200000000   
O      0.312500000000     0.287700000000     0.629900000000   