%BLOCK LATTICE_CART
ang    # angstrom units
  13.674000000000    0.000000000000     0.000000000000   
 -6.837000000000     11.842031371348    0.000000000000   
  0.000000000000     0.000000000000     19.695000000000  
%ENDBLOCK LATTICE_CART

%BLOCK POSITIONS_FRAC
O      0.032666666667     0.065333333333     0.046000000000   
O      0.293233333333     0.040100000000     0.049300000000   
O      0.000000000000     0.085900000000     0.000000000000   
O      0.007733333333     0.111133333333     0.062500000000   
O      0.078466666667     0.156966666667     0.078850000000   
O      0.110833333333     0.136166666667     0.125000000000   
O      0.151233333333     0.182100000000     0.075900000000   
Si     0.000100000000     0.075600000000     0.039400000000   
Si     0.110966666667     0.146600000000     0.085600000000   
O      0.300666666667     0.032666666667     0.296000000000   
O      0.253133333333     0.293233333333     0.299300000000   
O      0.247433333333     0.000000000000     0.250000000000   
O      0.229933333333     0.007733333333     0.312500000000   
O      0.254833333333     0.078466666667     0.328850000000   
O      0.308000000000     0.110833333333     0.375000000000   
O      0.302466666667     0.151233333333     0.325900000000   
Si     0.257833333333     0.000100000000     0.289400000000   
Si     0.297700000000     0.110966666667     0.335600000000   
O      0.268000000000     0.300666666667     0.046000000000   
O      0.293233333333     0.253133333333     0.049300000000   
O      0.247433333333     0.247433333333     0.000000000000   
O      0.222200000000     0.229933333333     0.062500000000   
O      0.176366666667     0.254833333333     0.078850000000   
O      0.197166666667     0.308000000000     0.125000000000   
O      0.151233333333     0.302466666667     0.075900000000   
Si     0.257733333333     0.257833333333     0.039400000000   
Si     0.186733333333     0.297700000000     0.085600000000   
O      0.300666666667     0.268000000000     0.296000000000   
O      0.040100000000     0.293233333333     0.299300000000   
O      0.000000000000     0.247433333333     0.250000000000   
O      0.325600000000     0.222200000000     0.312500000000   
O      0.254866666667     0.176366666667     0.328850000000   
O      0.222500000000     0.197166666667     0.375000000000   
O      0.182100000000     0.151233333333     0.325900000000   
Si     0.333233333333     0.257733333333     0.289400000000   
Si     0.222366666667     0.186733333333     0.335600000000   
O      0.032666666667     0.300666666667     0.046000000000   
O      0.080200000000     0.040100000000     0.049300000000   
O      0.085900000000     0.000000000000     0.000000000000   
O      0.103400000000     0.325600000000     0.062500000000   
O      0.078500000000     0.254866666667     0.078850000000   
O      0.025333333333     0.222500000000     0.125000000000   
O      0.030866666667     0.182100000000     0.075900000000   
Si     0.075500000000     0.333233333333     0.039400000000   
Si     0.035633333333     0.222366666667     0.085600000000   
O      0.065333333333     0.032666666667     0.296000000000   
O      0.040100000000     0.080200000000     0.299300000000   
O      0.085900000000     0.085900000000     0.250000000000   
O      0.111133333333     0.103400000000     0.312500000000   
O      0.156966666667     0.078500000000     0.328850000000   
O      0.136166666667     0.025333333333     0.375000000000   
O      0.182100000000     0.030866666667     0.325900000000   
Si     0.075600000000     0.075500000000     0.289400000000   
Si     0.146600000000     0.035633333333     0.335600000000   
O      0.268000000000     0.300666666667     0.204000000000   
O      0.293233333333     0.040100000000     0.200700000000   
O      0.222200000000     0.325600000000     0.187500000000   
O      0.176366666667     0.254866666667     0.171150000000   
O      0.197166666667     0.222500000000     0.125000000000   
O      0.151233333333     0.182100000000     0.174100000000   
Si     0.257733333333     0.333233333333     0.210600000000   
Si     0.186733333333     0.222366666667     0.164400000000   
O      0.300666666667     0.268000000000     0.454000000000   
O      0.253133333333     0.293233333333     0.450700000000   
O      0.229933333333     0.222200000000     0.437500000000   
O      0.254833333333     0.176366666667     0.421150000000   
O      0.308000000000     0.197166666667     0.375000000000   
O      0.302466666667     0.151233333333     0.424100000000   
Si     0.257833333333     0.257733333333     0.460600000000   
Si     0.297700000000     0.186733333333     0.414400000000   
O      0.032666666667     0.300666666667     0.204000000000   
O      0.293233333333     0.253133333333     0.200700000000   
O      0.007733333333     0.229933333333     0.187500000000   
O      0.078466666667     0.254833333333     0.171150000000   
O      0.110833333333     0.308000000000     0.125000000000   
O      0.151233333333     0.302466666667     0.174100000000   
Si     0.000100000000     0.257833333333     0.210600000000   
Si     0.110966666667     0.297700000000     0.164400000000   
O      0.065333333333     0.032666666667     0.454000000000   
O      0.040100000000     0.293233333333     0.450700000000   
O      0.111133333333     0.007733333333     0.437500000000   
O      0.156966666667     0.078466666667     0.421150000000   
O      0.136166666667     0.110833333333     0.375000000000   
O      0.182100000000     0.151233333333     0.424100000000   
Si     0.075600000000     0.000100000000     0.460600000000   
Si     0.146600000000     0.110966666667     0.414400000000   
O      0.032666666667     0.065333333333     0.204000000000   
O      0.080200000000     0.040100000000     0.200700000000   
O      0.103400000000     0.111133333333     0.187500000000   
O      0.078500000000     0.156966666667     0.171150000000   
O      0.025333333333     0.136166666667     0.125000000000   
O      0.030866666667     0.182100000000     0.174100000000   
Si     0.075500000000     0.075600000000     0.210600000000   
Si     0.035633333333     0.146600000000     0.164400000000   
O      0.300666666667     0.032666666667     0.454000000000   
O      0.040100000000     0.080200000000     0.450700000000   
O      0.325600000000     0.103400000000     0.437500000000   
O      0.254866666667     0.078500000000     0.421150000000   
O      0.222500000000     0.025333333333     0.375000000000   
O      0.182100000000     0.030866666667     0.424100000000   
Si     0.333233333333     0.075500000000     0.460600000000   
Si     0.222366666667     0.035633333333     0.414400000000   
O      0.000000000000     0.247433333333     0.000000000000   
O      0.325600000000     0.222200000000     0.437500000000   
Si     0.333233333333     0.257733333333     0.460600000000   
Si     0.222366666667     0.186733333333     0.414400000000   
O      0.085900000000     0.000000000000     0.250000000000   
O      0.103400000000     0.325600000000     0.187500000000   
Si     0.075500000000     0.333233333333     0.210600000000   
Si     0.035633333333     0.222366666667     0.164400000000   
O      0.085900000000     0.085900000000     0.000000000000   
O      0.111133333333     0.103400000000     0.437500000000   
Si     0.075600000000     0.075500000000     0.460600000000   
Si     0.146600000000     0.035633333333     0.414400000000   
O      0.000000000000     0.085900000000     0.250000000000   
O      0.007733333333     0.111133333333     0.187500000000   
Si     0.000100000000     0.075600000000     0.210600000000   
Si     0.110966666667     0.146600000000     0.164400000000   
O      0.247433333333     0.000000000000     0.000000000000   
O      0.229933333333     0.007733333333     0.437500000000   
Si     0.257833333333     0.000100000000     0.460600000000   
Si     0.297700000000     0.110966666667     0.414400000000   
O      0.247433333333     0.247433333333     0.250000000000   
O      0.222200000000     0.229933333333     0.187500000000   
Si     0.257733333333     0.257833333333     0.210600000000   
Si     0.186733333333     0.297700000000     0.164400000000   
O      0.111133333333     0.007733333333     0.312500000000   
Si     0.075600000000     0.000100000000     0.289400000000   
Si     0.146600000000     0.110966666667     0.335600000000   
O      0.103400000000     0.111133333333     0.062500000000   
Si     0.075500000000     0.075600000000     0.039400000000   
Si     0.035633333333     0.146600000000     0.085600000000   
O      0.325600000000     0.103400000000     0.312500000000   
Si     0.333233333333     0.075500000000     0.289400000000   
Si     0.222366666667     0.035633333333     0.335600000000   
O      0.222200000000     0.325600000000     0.062500000000   
Si     0.257733333333     0.333233333333     0.039400000000   
Si     0.186733333333     0.222366666667     0.085600000000   
O      0.229933333333     0.222200000000     0.312500000000   
Si     0.257833333333     0.257733333333     0.289400000000   
Si     0.297700000000     0.186733333333     0.335600000000   
O      0.007733333333     0.229933333333     0.062500000000   
Si     0.000100000000     0.257833333333     0.039400000000   
Si     0.110966666667     0.297700000000     0.085600000000   
O      0.032666666667     0.065333333333     0.546000000000   
O      0.293233333333     0.040100000000     0.549300000000   
O      0.000000000000     0.085900000000     0.500000000000   
O      0.007733333333     0.111133333333     0.562500000000   
O      0.078466666667     0.156966666667     0.578850000000   
O      0.110833333333     0.136166666667     0.625000000000   
O      0.151233333333     0.182100000000     0.575900000000   
Si     0.000100000000     0.075600000000     0.539400000000   
Si     0.110966666667     0.146600000000     0.585600000000   
O      0.300666666667     0.032666666667     0.796000000000   
O      0.253133333333     0.293233333333     0.799300000000   
O      0.247433333333     0.000000000000     0.750000000000   
O      0.229933333333     0.007733333333     0.812500000000   
O      0.254833333333     0.078466666667     0.828850000000   
O      0.308000000000     0.110833333333     0.875000000000   
O      0.302466666667     0.151233333333     0.825900000000   
Si     0.257833333333     0.000100000000     0.789400000000   
Si     0.297700000000     0.110966666667     0.835600000000   
O      0.268000000000     0.300666666667     0.546000000000   
O      0.293233333333     0.253133333333     0.549300000000   
O      0.247433333333     0.247433333333     0.500000000000   
O      0.222200000000     0.229933333333     0.562500000000   
O      0.176366666667     0.254833333333     0.578850000000   
O      0.197166666667     0.308000000000     0.625000000000   
O      0.151233333333     0.302466666667     0.575900000000   
Si     0.257733333333     0.257833333333     0.539400000000   
Si     0.186733333333     0.297700000000     0.585600000000   
O      0.300666666667     0.268000000000     0.796000000000   
O      0.040100000000     0.293233333333     0.799300000000   
O      0.000000000000     0.247433333333     0.750000000000   
O      0.325600000000     0.222200000000     0.812500000000   
O      0.254866666667     0.176366666667     0.828850000000   
O      0.222500000000     0.197166666667     0.875000000000   
O      0.182100000000     0.151233333333     0.825900000000   
Si     0.333233333333     0.257733333333     0.789400000000   
Si     0.222366666667     0.186733333333     0.835600000000   
O      0.032666666667     0.300666666667     0.546000000000   
O      0.080200000000     0.040100000000     0.549300000000   
O      0.085900000000     0.000000000000     0.500000000000   
O      0.103400000000     0.325600000000     0.562500000000   
O      0.078500000000     0.254866666667     0.578850000000   
O      0.025333333333     0.222500000000     0.625000000000   
O      0.030866666667     0.182100000000     0.575900000000   
Si     0.075500000000     0.333233333333     0.539400000000   
Si     0.035633333333     0.222366666667     0.585600000000   
O      0.065333333333     0.032666666667     0.796000000000   
O      0.040100000000     0.080200000000     0.799300000000   
O      0.085900000000     0.085900000000     0.750000000000   
O      0.111133333333     0.103400000000     0.812500000000   
O      0.156966666667     0.078500000000     0.828850000000   
O      0.136166666667     0.025333333333     0.875000000000   
O      0.182100000000     0.030866666667     0.825900000000   
Si     0.075600000000     0.075500000000     0.789400000000   
Si     0.146600000000     0.035633333333     0.835600000000   
O      0.268000000000     0.300666666667     0.704000000000   
O      0.293233333333     0.040100000000     0.700700000000   
O      0.222200000000     0.325600000000     0.687500000000   
O      0.176366666667     0.254866666667     0.671150000000   
O      0.197166666667     0.222500000000     0.625000000000   
O      0.151233333333     0.182100000000     0.674100000000   
Si     0.257733333333     0.333233333333     0.710600000000   
Si     0.186733333333     0.222366666667     0.664400000000   
O      0.300666666667     0.268000000000     0.954000000000   
O      0.253133333333     0.293233333333     0.950700000000   
O      0.229933333333     0.222200000000     0.937500000000   
O      0.254833333333     0.176366666667     0.921150000000   
O      0.308000000000     0.197166666667     0.875000000000   
O      0.302466666667     0.151233333333     0.924100000000   
Si     0.257833333333     0.257733333333     0.960600000000   
Si     0.297700000000     0.186733333333     0.914400000000   
O      0.032666666667     0.300666666667     0.704000000000   
O      0.293233333333     0.253133333333     0.700700000000   
O      0.007733333333     0.229933333333     0.687500000000   
O      0.078466666667     0.254833333333     0.671150000000   
O      0.110833333333     0.308000000000     0.625000000000   
O      0.151233333333     0.302466666667     0.674100000000   
Si     0.000100000000     0.257833333333     0.710600000000   
Si     0.110966666667     0.297700000000     0.664400000000   
O      0.065333333333     0.032666666667     0.954000000000   
O      0.040100000000     0.293233333333     0.950700000000   
O      0.111133333333     0.007733333333     0.937500000000   
O      0.156966666667     0.078466666667     0.921150000000   
O      0.136166666667     0.110833333333     0.875000000000   
O      0.182100000000     0.151233333333     0.924100000000   
Si     0.075600000000     0.000100000000     0.960600000000   
Si     0.146600000000     0.110966666667     0.914400000000   
O      0.032666666667     0.065333333333     0.704000000000   
O      0.080200000000     0.040100000000     0.700700000000   
O      0.103400000000     0.111133333333     0.687500000000   
O      0.078500000000     0.156966666667     0.671150000000   
O      0.025333333333     0.136166666667     0.625000000000   
O      0.030866666667     0.182100000000     0.674100000000   
Si     0.075500000000     0.075600000000     0.710600000000   
Si     0.035633333333     0.146600000000     0.664400000000   
O      0.300666666667     0.032666666667     0.954000000000   
O      0.040100000000     0.080200000000     0.950700000000   
O      0.325600000000     0.103400000000     0.937500000000   
O      0.254866666667     0.078500000000     0.921150000000   
O      0.222500000000     0.025333333333     0.875000000000   
O      0.182100000000     0.030866666667     0.924100000000   
Si     0.333233333333     0.075500000000     0.960600000000   
Si     0.222366666667     0.035633333333     0.914400000000   
O      0.000000000000     0.247433333333     0.500000000000   
O      0.325600000000     0.222200000000     0.937500000000   
Si     0.333233333333     0.257733333333     0.960600000000   
Si     0.222366666667     0.186733333333     0.914400000000   
O      0.085900000000     0.000000000000     0.750000000000   
O      0.103400000000     0.325600000000     0.687500000000   
Si     0.075500000000     0.333233333333     0.710600000000   
Si     0.035633333333     0.222366666667     0.664400000000   
O      0.085900000000     0.085900000000     0.500000000000   
O      0.111133333333     0.103400000000     0.937500000000   
Si     0.075600000000     0.075500000000     0.960600000000   
Si     0.146600000000     0.035633333333     0.914400000000   
O      0.000000000000     0.085900000000     0.750000000000   
O      0.007733333333     0.111133333333     0.687500000000   
Si     0.000100000000     0.075600000000     0.710600000000   
Si     0.110966666667     0.146600000000     0.664400000000   
O      0.247433333333     0.000000000000     0.500000000000   
O      0.229933333333     0.007733333333     0.937500000000   
Si     0.257833333333     0.000100000000     0.960600000000   
Si     0.297700000000     0.110966666667     0.914400000000   
O      0.247433333333     0.247433333333     0.750000000000   
O      0.222200000000     0.229933333333     0.687500000000   
Si     0.257733333333     0.257833333333     0.710600000000   
Si     0.186733333333     0.297700000000     0.664400000000   
O      0.111133333333     0.007733333333     0.812500000000   
Si     0.075600000000     0.000100000000     0.789400000000   
Si     0.146600000000     0.110966666667     0.835600000000   
O      0.103400000000     0.111133333333     0.562500000000   
Si     0.075500000000     0.075600000000     0.539400000000   
Si     0.035633333333     0.146600000000     0.585600000000   
O      0.325600000000     0.103400000000     0.812500000000   
Si     0.333233333333     0.075500000000     0.789400000000   
Si     0.222366666667     0.035633333333     0.835600000000   
O      0.222200000000     0.325600000000     0.562500000000   
Si     0.257733333333     0.333233333333     0.539400000000   
Si     0.186733333333     0.222366666667     0.585600000000   
O      0.229933333333     0.222200000000     0.812500000000   
Si     0.257833333333     0.257733333333     0.789400000000   
Si     0.297700000000     0.186733333333     0.835600000000   
O      0.007733333333     0.229933333333     0.562500000000   
Si     0.000100000000     0.257833333333     0.539400000000   
Si     0.110966666667     0.297700000000     0.585600000000   
O      0.032666666667     0.398666666667     0.046000000000   
O      0.293233333333     0.373433333333     0.049300000000   
O      0.000000000000     0.419233333333     0.000000000000   
O      0.007733333333     0.444466666667     0.062500000000   
O      0.078466666667     0.490300000000     0.078850000000   
O      0.110833333333     0.469500000000     0.125000000000   
O      0.151233333333     0.515433333333     0.075900000000   
Si     0.000100000000     0.408933333333     0.039400000000   
Si     0.110966666667     0.479933333333     0.085600000000   
O      0.300666666667     0.366000000000     0.296000000000   
O      0.253133333333     0.626566666667     0.299300000000   
O      0.247433333333     0.333333333333     0.250000000000   
O      0.229933333333     0.341066666667     0.312500000000   
O      0.254833333333     0.411800000000     0.328850000000   
O      0.308000000000     0.444166666667     0.375000000000   
O      0.302466666667     0.484566666667     0.325900000000   
Si     0.257833333333     0.333433333333     0.289400000000   
Si     0.297700000000     0.444300000000     0.335600000000   
O      0.268000000000     0.634000000000     0.046000000000   
O      0.293233333333     0.586466666667     0.049300000000   
O      0.247433333333     0.580766666667     0.000000000000   
O      0.222200000000     0.563266666667     0.062500000000   
O      0.176366666667     0.588166666667     0.078850000000   
O      0.197166666667     0.641333333333     0.125000000000   
O      0.151233333333     0.635800000000     0.075900000000   
Si     0.257733333333     0.591166666667     0.039400000000   
Si     0.186733333333     0.631033333333     0.085600000000   
O      0.300666666667     0.601333333333     0.296000000000   
O      0.040100000000     0.626566666667     0.299300000000   
O      0.000000000000     0.580766666667     0.250000000000   
O      0.325600000000     0.555533333333     0.312500000000   
O      0.254866666667     0.509700000000     0.328850000000   
O      0.222500000000     0.530500000000     0.375000000000   
O      0.182100000000     0.484566666667     0.325900000000   
Si     0.333233333333     0.591066666667     0.289400000000   
Si     0.222366666667     0.520066666667     0.335600000000   
O      0.032666666667     0.634000000000     0.046000000000   
O      0.080200000000     0.373433333333     0.049300000000   
O      0.085900000000     0.333333333333     0.000000000000   
O      0.103400000000     0.658933333333     0.062500000000   
O      0.078500000000     0.588200000000     0.078850000000   
O      0.025333333333     0.555833333333     0.125000000000   
O      0.030866666667     0.515433333333     0.075900000000   
Si     0.075500000000     0.666566666667     0.039400000000   
Si     0.035633333333     0.555700000000     0.085600000000   
O      0.065333333333     0.366000000000     0.296000000000   
O      0.040100000000     0.413533333333     0.299300000000   
O      0.085900000000     0.419233333333     0.250000000000   
O      0.111133333333     0.436733333333     0.312500000000   
O      0.156966666667     0.411833333333     0.328850000000   
O      0.136166666667     0.358666666667     0.375000000000   
O      0.182100000000     0.364200000000     0.325900000000   
Si     0.075600000000     0.408833333333     0.289400000000   
Si     0.146600000000     0.368966666667     0.335600000000   
O      0.268000000000     0.634000000000     0.204000000000   
O      0.293233333333     0.373433333333     0.200700000000   
O      0.222200000000     0.658933333333     0.187500000000   
O      0.176366666667     0.588200000000     0.171150000000   
O      0.197166666667     0.555833333333     0.125000000000   
O      0.151233333333     0.515433333333     0.174100000000   
Si     0.257733333333     0.666566666667     0.210600000000   
Si     0.186733333333     0.555700000000     0.164400000000   
O      0.300666666667     0.601333333333     0.454000000000   
O      0.253133333333     0.626566666667     0.450700000000   
O      0.229933333333     0.555533333333     0.437500000000   
O      0.254833333333     0.509700000000     0.421150000000   
O      0.308000000000     0.530500000000     0.375000000000   
O      0.302466666667     0.484566666667     0.424100000000   
Si     0.257833333333     0.591066666667     0.460600000000   
Si     0.297700000000     0.520066666667     0.414400000000   
O      0.032666666667     0.634000000000     0.204000000000   
O      0.293233333333     0.586466666667     0.200700000000   
O      0.007733333333     0.563266666667     0.187500000000   
O      0.078466666667     0.588166666667     0.171150000000   
O      0.110833333333     0.641333333333     0.125000000000   
O      0.151233333333     0.635800000000     0.174100000000   
Si     0.000100000000     0.591166666667     0.210600000000   
Si     0.110966666667     0.631033333333     0.164400000000   
O      0.065333333333     0.366000000000     0.454000000000   
O      0.040100000000     0.626566666667     0.450700000000   
O      0.111133333333     0.341066666667     0.437500000000   
O      0.156966666667     0.411800000000     0.421150000000   
O      0.136166666667     0.444166666667     0.375000000000   
O      0.182100000000     0.484566666667     0.424100000000   
Si     0.075600000000     0.333433333333     0.460600000000   
Si     0.146600000000     0.444300000000     0.414400000000   
O      0.032666666667     0.398666666667     0.204000000000   
O      0.080200000000     0.373433333333     0.200700000000   
O      0.103400000000     0.444466666667     0.187500000000   
O      0.078500000000     0.490300000000     0.171150000000   
O      0.025333333333     0.469500000000     0.125000000000   
O      0.030866666667     0.515433333333     0.174100000000   
Si     0.075500000000     0.408933333333     0.210600000000   
Si     0.035633333333     0.479933333333     0.164400000000   
O      0.300666666667     0.366000000000     0.454000000000   
O      0.040100000000     0.413533333333     0.450700000000   
O      0.325600000000     0.436733333333     0.437500000000   
O      0.254866666667     0.411833333333     0.421150000000   
O      0.222500000000     0.358666666667     0.375000000000   
O      0.182100000000     0.364200000000     0.424100000000   
Si     0.333233333333     0.408833333333     0.460600000000   
Si     0.222366666667     0.368966666667     0.414400000000   
O      0.000000000000     0.580766666667     0.000000000000   
O      0.325600000000     0.555533333333     0.437500000000   
Si     0.333233333333     0.591066666667     0.460600000000   
Si     0.222366666667     0.520066666667     0.414400000000   
O      0.085900000000     0.333333333333     0.250000000000   
O      0.103400000000     0.658933333333     0.187500000000   
Si     0.075500000000     0.666566666667     0.210600000000   
Si     0.035633333333     0.555700000000     0.164400000000   
O      0.085900000000     0.419233333333     0.000000000000   
O      0.111133333333     0.436733333333     0.437500000000   
Si     0.075600000000     0.408833333333     0.460600000000   
Si     0.146600000000     0.368966666667     0.414400000000   
O      0.000000000000     0.419233333333     0.250000000000   
O      0.007733333333     0.444466666667     0.187500000000   
Si     0.000100000000     0.408933333333     0.210600000000   
Si     0.110966666667     0.479933333333     0.164400000000   
O      0.247433333333     0.333333333333     0.000000000000   
O      0.229933333333     0.341066666667     0.437500000000   
Si     0.257833333333     0.333433333333     0.460600000000   
Si     0.297700000000     0.444300000000     0.414400000000   
O      0.247433333333     0.580766666667     0.250000000000   
O      0.222200000000     0.563266666667     0.187500000000   
Si     0.257733333333     0.591166666667     0.210600000000   
Si     0.186733333333     0.631033333333     0.164400000000   
O      0.111133333333     0.341066666667     0.312500000000   
Si     0.075600000000     0.333433333333     0.289400000000   
Si     0.146600000000     0.444300000000     0.335600000000   
O      0.103400000000     0.444466666667     0.062500000000   
Si     0.075500000000     0.408933333333     0.039400000000   
Si     0.035633333333     0.479933333333     0.085600000000   
O      0.325600000000     0.436733333333     0.312500000000   
Si     0.333233333333     0.408833333333     0.289400000000   
Si     0.222366666667     0.368966666667     0.335600000000   
O      0.222200000000     0.658933333333     0.062500000000   
Si     0.257733333333     0.666566666667     0.039400000000   
Si     0.186733333333     0.555700000000     0.085600000000   
O      0.229933333333     0.555533333333     0.312500000000   
Si     0.257833333333     0.591066666667     0.289400000000   
Si     0.297700000000     0.520066666667     0.335600000000   
O      0.007733333333     0.563266666667     0.062500000000   
Si     0.000100000000     0.591166666667     0.039400000000   
Si     0.110966666667     0.631033333333     0.085600000000   
O      0.032666666667     0.398666666667     0.546000000000   
O      0.293233333333     0.373433333333     0.549300000000   
O      0.000000000000     0.419233333333     0.500000000000   
O      0.007733333333     0.444466666667     0.562500000000   
O      0.078466666667     0.490300000000     0.578850000000   
O      0.110833333333     0.469500000000     0.625000000000   
O      0.151233333333     0.515433333333     0.575900000000   
Si     0.000100000000     0.408933333333     0.539400000000   
Si     0.110966666667     0.479933333333     0.585600000000   
O      0.300666666667     0.366000000000     0.796000000000   
O      0.253133333333     0.626566666667     0.799300000000   
O      0.247433333333     0.333333333333     0.750000000000   
O      0.229933333333     0.341066666667     0.812500000000   
O      0.254833333333     0.411800000000     0.828850000000   
O      0.308000000000     0.444166666667     0.875000000000   
O      0.302466666667     0.484566666667     0.825900000000   
Si     0.257833333333     0.333433333333     0.789400000000   
Si     0.297700000000     0.444300000000     0.835600000000   
O      0.268000000000     0.634000000000     0.546000000000   
O      0.293233333333     0.586466666667     0.549300000000   
O      0.247433333333     0.580766666667     0.500000000000   
O      0.222200000000     0.563266666667     0.562500000000   
O      0.176366666667     0.588166666667     0.578850000000   
O      0.197166666667     0.641333333333     0.625000000000   
O      0.151233333333     0.635800000000     0.575900000000   
Si     0.257733333333     0.591166666667     0.539400000000   
Si     0.186733333333     0.631033333333     0.585600000000   
O      0.300666666667     0.601333333333     0.796000000000   
O      0.040100000000     0.626566666667     0.799300000000   
O      0.000000000000     0.580766666667     0.750000000000   
O      0.325600000000     0.555533333333     0.812500000000   
O      0.254866666667     0.509700000000     0.828850000000   
O      0.222500000000     0.530500000000     0.875000000000   
O      0.182100000000     0.484566666667     0.825900000000   
Si     0.333233333333     0.591066666667     0.789400000000   
Si     0.222366666667     0.520066666667     0.835600000000   
O      0.032666666667     0.634000000000     0.546000000000   
O      0.080200000000     0.373433333333     0.549300000000   
O      0.085900000000     0.333333333333     0.500000000000   
O      0.103400000000     0.658933333333     0.562500000000   