%BLOCK LATTICE_CART
ang    # angstrom units
  7.543000000000     0.000000000000     0.000000000000   
  0.000000000000     14.388000000000    0.000000000000   
  0.000000000000     0.000000000000     19.016000000000  
%ENDBLOCK LATTICE_CART

%BLOCK POSITIONS_FRAC
O      0.081450000000     0.111500000000     0.126050000000   
O      0.062650000000     0.133400000000     0.060600000000   
O      0.000000000000     0.102850000000     0.102700000000   
O      0.062225000000     0.045750000000     0.080950000000   
O      0.062750000000     0.295700000000     0.016600000000   
O      0.043600000000     0.379550000000     0.493850000000   
O      0.125000000000     0.359350000000     0.012650000000   
O      0.000000000000     0.045650000000     0.474450000000   
O      0.000000000000     0.119150000000     0.433950000000   
O      0.000000000000     0.295550000000     0.409550000000   
O      0.125000000000     0.000000000000     0.047650000000   
O      0.043650000000     0.000000000000     0.023150000000   
O      0.125000000000     0.250000000000     0.482850000000   
O      0.043550000000     0.250000000000     0.458600000000   
Si     0.051575000000     0.098400000000     0.092400000000   
Si     0.073425000000     0.350200000000     0.021050000000   
Si     0.000000000000     0.101600000000     0.474100000000   
Si     0.000000000000     0.349650000000     0.398850000000   
Si     0.073375000000     0.000000000000     0.058300000000   
Si     0.073400000000     0.250000000000     0.493650000000   
Si     0.000000000000     0.250000000000     0.434150000000   
Si     0.000000000000     0.000000000000     0.498900000000   
O      0.168550000000     0.388500000000     0.126050000000   
O      0.187350000000     0.366600000000     0.060600000000   
O      0.000000000000     0.397150000000     0.102700000000   
O      0.187775000000     0.454250000000     0.080950000000   
O      0.187250000000     0.204300000000     0.016600000000   
O      0.206400000000     0.120450000000     0.493850000000   
O      0.125000000000     0.140650000000     0.012650000000   
O      0.000000000000     0.454350000000     0.474450000000   
O      0.000000000000     0.380850000000     0.433950000000   
O      0.000000000000     0.204450000000     0.409550000000   
O      0.206350000000     0.000000000000     0.023150000000   
O      0.206450000000     0.250000000000     0.458600000000   
Si     0.198425000000     0.401600000000     0.092400000000   
Si     0.176575000000     0.149800000000     0.021050000000   
Si     0.000000000000     0.398400000000     0.474100000000   
Si     0.000000000000     0.150350000000     0.398850000000   
Si     0.176625000000     0.000000000000     0.058300000000   
Si     0.176600000000     0.250000000000     0.493650000000   
O      0.168550000000     0.111500000000     0.126050000000   
O      0.187350000000     0.133400000000     0.060600000000   
O      0.187775000000     0.045750000000     0.080950000000   
O      0.187250000000     0.295700000000     0.016600000000   
O      0.206400000000     0.379550000000     0.493850000000   
Si     0.198425000000     0.098400000000     0.092400000000   
Si     0.176575000000     0.350200000000     0.021050000000   
O      0.081450000000     0.388500000000     0.126050000000   
O      0.062650000000     0.366600000000     0.060600000000   
O      0.062225000000     0.454250000000     0.080950000000   
O      0.062750000000     0.204300000000     0.016600000000   
O      0.043600000000     0.120450000000     0.493850000000   
Si     0.051575000000     0.401600000000     0.092400000000   
Si     0.073425000000     0.149800000000     0.021050000000   
O      0.206450000000     0.361500000000     0.376050000000   
O      0.187650000000     0.383400000000     0.310600000000   
O      0.125000000000     0.352850000000     0.352700000000   
O      0.187225000000     0.295750000000     0.330950000000   
O      0.187750000000     0.045700000000     0.266600000000   
O      0.168600000000     0.129550000000     0.243850000000   
O      0.000000000000     0.109350000000     0.262650000000   
O      0.125000000000     0.295650000000     0.224450000000   
O      0.125000000000     0.369150000000     0.183950000000   
O      0.125000000000     0.045550000000     0.159550000000   
O      0.000000000000     0.250000000000     0.297650000000   
O      0.168650000000     0.250000000000     0.273150000000   
O      0.000000000000     0.000000000000     0.232850000000   
O      0.168550000000     0.000000000000     0.208600000000   
Si     0.176575000000     0.348400000000     0.342400000000   
Si     0.198425000000     0.100200000000     0.271050000000   
Si     0.125000000000     0.351600000000     0.224100000000   
Si     0.125000000000     0.099650000000     0.148850000000   
Si     0.198375000000     0.250000000000     0.308300000000   
Si     0.198400000000     0.000000000000     0.243650000000   
Si     0.125000000000     0.000000000000     0.184150000000   
Si     0.125000000000     0.250000000000     0.248900000000   
O      0.043550000000     0.138500000000     0.376050000000   
O      0.062350000000     0.116600000000     0.310600000000   
O      0.125000000000     0.147150000000     0.352700000000   
O      0.062775000000     0.204250000000     0.330950000000   
O      0.062250000000     0.454300000000     0.266600000000   
O      0.081400000000     0.370450000000     0.243850000000   
O      0.000000000000     0.390650000000     0.262650000000   
O      0.125000000000     0.204350000000     0.224450000000   
O      0.125000000000     0.130850000000     0.183950000000   
O      0.125000000000     0.454450000000     0.159550000000   
O      0.081350000000     0.250000000000     0.273150000000   
O      0.081450000000     0.000000000000     0.208600000000   
Si     0.073425000000     0.151600000000     0.342400000000   
Si     0.051575000000     0.399800000000     0.271050000000   
Si     0.125000000000     0.148400000000     0.224100000000   
Si     0.125000000000     0.400350000000     0.148850000000   
Si     0.051625000000     0.250000000000     0.308300000000   
Si     0.051600000000     0.000000000000     0.243650000000   
O      0.043550000000     0.361500000000     0.376050000000   
O      0.062350000000     0.383400000000     0.310600000000   
O      0.062775000000     0.295750000000     0.330950000000   
O      0.062250000000     0.045700000000     0.266600000000   
O      0.081400000000     0.129550000000     0.243850000000   
Si     0.073425000000     0.348400000000     0.342400000000   
Si     0.051575000000     0.100200000000     0.271050000000   
O      0.206450000000     0.138500000000     0.376050000000   
O      0.187650000000     0.116600000000     0.310600000000   
O      0.187225000000     0.204250000000     0.330950000000   
O      0.187750000000     0.454300000000     0.266600000000   
O      0.168600000000     0.370450000000     0.243850000000   
Si     0.176575000000     0.151600000000     0.342400000000   
Si     0.198425000000     0.399800000000     0.271050000000   
O      0.081450000000     0.111500000000     0.626050000000   
O      0.062650000000     0.133400000000     0.560600000000   
O      0.000000000000     0.102850000000     0.602700000000   
O      0.062225000000     0.045750000000     0.580950000000   
O      0.062750000000     0.295700000000     0.516600000000   
O      0.043600000000     0.379550000000     0.993850000000   
O      0.125000000000     0.359350000000     0.512650000000   
O      0.000000000000     0.045650000000     0.974450000000   
O      0.000000000000     0.119150000000     0.933950000000   
O      0.000000000000     0.295550000000     0.909550000000   
O      0.125000000000     0.000000000000     0.547650000000   
O      0.043650000000     0.000000000000     0.523150000000   
O      0.125000000000     0.250000000000     0.982850000000   
O      0.043550000000     0.250000000000     0.958600000000   
Si     0.051575000000     0.098400000000     0.592400000000   
Si     0.073425000000     0.350200000000     0.521050000000   
Si     0.000000000000     0.101600000000     0.974100000000   
Si     0.000000000000     0.349650000000     0.898850000000   
Si     0.073375000000     0.000000000000     0.558300000000   
Si     0.073400000000     0.250000000000     0.993650000000   
Si     0.000000000000     0.250000000000     0.934150000000   
Si     0.000000000000     0.000000000000     0.998900000000   
O      0.168550000000     0.388500000000     0.626050000000   
O      0.187350000000     0.366600000000     0.560600000000   
O      0.000000000000     0.397150000000     0.602700000000   
O      0.187775000000     0.454250000000     0.580950000000   
O      0.187250000000     0.204300000000     0.516600000000   
O      0.206400000000     0.120450000000     0.993850000000   
O      0.125000000000     0.140650000000     0.512650000000   
O      0.000000000000     0.454350000000     0.974450000000   
O      0.000000000000     0.380850000000     0.933950000000   
O      0.000000000000     0.204450000000     0.909550000000   
O      0.206350000000     0.000000000000     0.523150000000   
O      0.206450000000     0.250000000000     0.958600000000   
Si     0.198425000000     0.401600000000     0.592400000000   
Si     0.176575000000     0.149800000000     0.521050000000   
Si     0.000000000000     0.398400000000     0.974100000000   
Si     0.000000000000     0.150350000000     0.898850000000   
Si     0.176625000000     0.000000000000     0.558300000000   
Si     0.176600000000     0.250000000000     0.993650000000   
O      0.168550000000     0.111500000000     0.626050000000   
O      0.187350000000     0.133400000000     0.560600000000   
O      0.187775000000     0.045750000000     0.580950000000   
O      0.187250000000     0.295700000000     0.516600000000   
O      0.206400000000     0.379550000000     0.993850000000   
Si     0.198425000000     0.098400000000     0.592400000000   
Si     0.176575000000     0.350200000000     0.521050000000   
O      0.081450000000     0.388500000000     0.626050000000   
O      0.062650000000     0.366600000000     0.560600000000   
O      0.062225000000     0.454250000000     0.580950000000   
O      0.062750000000     0.204300000000     0.516600000000   
O      0.043600000000     0.120450000000     0.993850000000   
Si     0.051575000000     0.401600000000     0.592400000000   
Si     0.073425000000     0.149800000000     0.521050000000   
O      0.206450000000     0.361500000000     0.876050000000   
O      0.187650000000     0.383400000000     0.810600000000   
O      0.125000000000     0.352850000000     0.852700000000   
O      0.187225000000     0.295750000000     0.830950000000   
O      0.187750000000     0.045700000000     0.766600000000   
O      0.168600000000     0.129550000000     0.743850000000   
O      0.000000000000     0.109350000000     0.762650000000   
O      0.125000000000     0.295650000000     0.724450000000   
O      0.125000000000     0.369150000000     0.683950000000   
O      0.125000000000     0.045550000000     0.659550000000   
O      0.000000000000     0.250000000000     0.797650000000   
O      0.168650000000     0.250000000000     0.773150000000   
O      0.000000000000     0.000000000000     0.732850000000   
O      0.168550000000     0.000000000000     0.708600000000   
Si     0.176575000000     0.348400000000     0.842400000000   
Si     0.198425000000     0.100200000000     0.771050000000   
Si     0.125000000000     0.351600000000     0.724100000000   
Si     0.125000000000     0.099650000000     0.648850000000   
Si     0.198375000000     0.250000000000     0.808300000000   
Si     0.198400000000     0.000000000000     0.743650000000   
Si     0.125000000000     0.000000000000     0.684150000000   
Si     0.125000000000     0.250000000000     0.748900000000   
O      0.043550000000     0.138500000000     0.876050000000   
O      0.062350000000     0.116600000000     0.810600000000   
O      0.125000000000     0.147150000000     0.852700000000   
O      0.062775000000     0.204250000000     0.830950000000   
O      0.062250000000     0.454300000000     0.766600000000   
O      0.081400000000     0.370450000000     0.743850000000   
O      0.000000000000     0.390650000000     0.762650000000   
O      0.125000000000     0.204350000000     0.724450000000   
O      0.125000000000     0.130850000000     0.683950000000   
O      0.125000000000     0.454450000000     0.659550000000   
O      0.081350000000     0.250000000000     0.773150000000   
O      0.081450000000     0.000000000000     0.708600000000   
Si     0.073425000000     0.151600000000     0.842400000000   
Si     0.051575000000     0.399800000000     0.771050000000   
Si     0.125000000000     0.148400000000     0.724100000000   
Si     0.125000000000     0.400350000000     0.648850000000   
Si     0.051625000000     0.250000000000     0.808300000000   
Si     0.051600000000     0.000000000000     0.743650000000   
O      0.043550000000     0.361500000000     0.876050000000   
O      0.062350000000     0.383400000000     0.810600000000   
O      0.062775000000     0.295750000000     0.830950000000   
O      0.062250000000     0.045700000000     0.766600000000   
O      0.081400000000     0.129550000000     0.743850000000   
Si     0.073425000000     0.348400000000     0.842400000000   
Si     0.051575000000     0.100200000000     0.771050000000   
O      0.206450000000     0.138500000000     0.876050000000   
O      0.187650000000     0.116600000000     0.810600000000   
O      0.187225000000     0.204250000000     0.830950000000   
O      0.187750000000     0.454300000000     0.766600000000   
O      0.168600000000     0.370450000000     0.743850000000   
Si     0.176575000000     0.151600000000     0.842400000000   
Si     0.198425000000     0.399800000000     0.771050000000   
O      0.081450000000     0.611500000000     0.126050000000   
O      0.062650000000     0.633400000000     0.060600000000   
O      0.000000000000     0.602850000000     0.102700000000   
O      0.062225000000     0.545750000000     0.080950000000   
O      0.062750000000     0.795700000000     0.016600000000   
O      0.043600000000     0.879550000000     0.493850000000   
O      0.125000000000     0.859350000000     0.012650000000   
O      0.000000000000     0.545650000000     0.474450000000   
O      0.000000000000     0.619150000000     0.433950000000   
O      0.000000000000     0.795550000000     0.409550000000   
O      0.125000000000     0.500000000000     0.047650000000   
O      0.043650000000     0.500000000000     0.023150000000   
O      0.125000000000     0.750000000000     0.482850000000   
O      0.043550000000     0.750000000000     0.458600000000   
Si     0.051575000000     0.598400000000     0.092400000000   
Si     0.073425000000     0.850200000000     0.021050000000   
Si     0.000000000000     0.601600000000     0.474100000000   
Si     0.000000000000     0.849650000000     0.398850000000   
Si     0.073375000000     0.500000000000     0.058300000000   
Si     0.073400000000     0.750000000000     0.493650000000   
Si     0.000000000000     0.750000000000     0.434150000000   
Si     0.000000000000     0.500000000000     0.498900000000   
O      0.168550000000     0.888500000000     0.126050000000   
O      0.187350000000     0.866600000000     0.060600000000   
O      0.000000000000     0.897150000000     0.102700000000   
O      0.187775000000     0.954250000000     0.080950000000   
O      0.187250000000     0.704300000000     0.016600000000   
O      0.206400000000     0.620450000000     0.493850000000   
O      0.125000000000     0.640650000000     0.012650000000   
O      0.000000000000     0.954350000000     0.474450000000   
O      0.000000000000     0.880850000000     0.433950000000   
O      0.000000000000     0.704450000000     0.409550000000   
O      0.206350000000     0.500000000000     0.023150000000   
O      0.206450000000     0.750000000000     0.458600000000   
Si     0.198425000000     0.901600000000     0.092400000000   
Si     0.176575000000     0.649800000000     0.021050000000   
Si     0.000000000000     0.898400000000     0.474100000000   
Si     0.000000000000     0.650350000000     0.398850000000   
Si     0.176625000000     0.500000000000     0.058300000000   
Si     0.176600000000     0.750000000000     0.493650000000   
O      0.168550000000     0.611500000000     0.126050000000   
O      0.187350000000     0.633400000000     0.060600000000   
O      0.187775000000     0.545750000000     0.080950000000   
O      0.187250000000     0.795700000000     0.016600000000   
O      0.206400000000     0.879550000000     0.493850000000   
Si     0.198425000000     0.598400000000     0.092400000000   
Si     0.176575000000     0.850200000000     0.021050000000   
O      0.081450000000     0.888500000000     0.126050000000   
O      0.062650000000     0.866600000000     0.060600000000   
O      0.062225000000     0.954250000000     0.080950000000   
O      0.062750000000     0.704300000000     0.016600000000   
O      0.043600000000     0.620450000000     0.493850000000   
Si     0.051575000000     0.901600000000     0.092400000000   
Si     0.073425000000     0.649800000000     0.021050000000   
O      0.206450000000     0.861500000000     0.376050000000   
O      0.187650000000     0.883400000000     0.310600000000   
O      0.125000000000     0.852850000000     0.352700000000   
O      0.187225000000     0.795750000000     0.330950000000   
O      0.187750000000     0.545700000000     0.266600000000   
O      0.168600000000     0.629550000000     0.243850000000   
O      0.000000000000     0.609350000000     0.262650000000   
O      0.125000000000     0.795650000000     0.224450000000   
O      0.125000000000     0.869150000000     0.183950000000   
O      0.125000000000     0.545550000000     0.159550000000   
O      0.000000000000     0.750000000000     0.297650000000   
O      0.168650000000     0.750000000000     0.273150000000   
O      0.000000000000     0.500000000000     0.232850000000   
O      0.168550000000     0.500000000000     0.208600000000   
Si     0.176575000000     0.848400000000     0.342400000000   
Si     0.198425000000     0.600200000000     0.271050000000   
Si     0.125000000000     0.851600000000     0.224100000000   
Si     0.125000000000     0.599650000000     0.148850000000   
Si     0.198375000000     0.750000000000     0.308300000000   
Si     0.198400000000     0.500000000000     0.243650000000   
Si     0.125000000000     0.500000000000     0.184150000000   
Si     0.125000000000     0.750000000000     0.248900000000   
O      0.043550000000     0.638500000000     0.376050000000   
O      0.062350000000     0.616600000000     0.310600000000   
O      0.125000000000     0.647150000000     0.352700000000   
O      0.062775000000     0.704250000000     0.330950000000   
O      0.062250000000     0.954300000000     0.266600000000   
O      0.081400000000     0.870450000000     0.243850000000   
O      0.000000000000     0.890650000000     0.262650000000   
O      0.125000000000     0.704350000000     0.224450000000   
O      0.125000000000     0.630850000000     0.183950000000   
O      0.125000000000     0.954450000000     0.159550000000   
O      0.081350000000     0.750000000000     0.273150000000   
O      0.081450000000     0.500000000000     0.208600000000   
Si     0.073425000000     0.651600000000     0.342400000000   
Si     0.051575000000     0.899800000000     0.271050000000   
Si     0.125000000000     0.648400000000     0.224100000000   
Si     0.125000000000     0.900350000000     0.148850000000   
Si     0.051625000000     0.750000000000     0.308300000000   
Si     0.051600000000     0.500000000000     0.243650000000   
O      0.043550000000     0.861500000000     0.376050000000   
O      0.062350000000     0.883400000000     0.310600000000   
O      0.062775000000     0.795750000000     0.330950000000   
O      0.062250000000     0.545700000000     0.266600000000   
O      0.081400000000     0.629550000000     0.243850000000   
Si     0.073425000000     0.848400000000     0.342400000000   
Si     0.051575000000     0.600200000000     0.271050000000   
O      0.206450000000     0.638500000000     0.376050000000   
O      0.187650000000     0.616600000000     0.310600000000   
O      0.187225000000     0.704250000000     0.330950000000   
O      0.187750000000     0.954300000000     0.266600000000   
O      0.168600000000     0.870450000000     0.243850000000   
Si     0.176575000000     0.651600000000     0.342400000000   
Si     0.198425000000     0.899800000000     0.271050000000   
O      0.081450000000     0.611500000000     0.626050000000   
O      0.062650000000     0.633400000000     0.560600000000   
O      0.000000000000     0.602850000000     0.602700000000   
O      0.062225000000     0.545750000000     0.580950000000   
O      0.062750000000     0.795700000000     0.516600000000   
O      0.043600000000     0.879550000000     0.993850000000   
O      0.125000000000     0.859350000000     0.512650000000   
O      0.000000000000     0.545650000000     0.974450000000   
O      0.000000000000     0.619150000000     0.933950000000   
O      0.000000000000     0.795550000000     0.909550000000   
O      0.125000000000     0.500000000000     0.547650000000   
O      0.043650000000     0.500000000000     0.523150000000   
O      0.125000000000     0.750000000000     0.982850000000   
O      0.043550000000     0.750000000000     0.958600000000   
Si     0.051575000000     0.598400000000     0.592400000000   
Si     0.073425000000     0.850200000000     0.521050000000   
Si     0.000000000000     0.601600000000     0.974100000000   
Si     0.000000000000     0.849650000000     0.898850000000   
Si     0.073375000000     0.500000000000     0.558300000000   
Si     0.073400000000     0.750000000000     0.993650000000   
Si     0.000000000000     0.750000000000     0.934150000000   
Si     0.000000000000     0.500000000000     0.998900000000   
O      0.168550000000     0.888500000000     0.626050000000   
O      0.187350000000     0.866600000000     0.560600000000   
O      0.000000000000     0.897150000000     0.602700000000   
O      0.187775000000     0.954250000000     0.580950000000   
O      0.187250000000     0.704300000000     0.516600000000   
O      0.206400000000     0.620450000000     0.993850000000   
O      0.125000000000     0.640650000000     0.512650000000   
O      0.000000000000     0.954350000000     0.974450000000   
O      0.000000000000     0.880850000000     0.933950000000   
O      0.000000000000     0.704450000000     0.909550000000   
O      0.206350000000     0.500000000000     0.523150000000   
O      0.206450000000     0.750000000000     0.958600000000   
Si     0.198425000000     0.901600000000     0.592400000000   
Si     0.176575000000     0.649800000000     0.521050000000   
Si     0.000000000000     0.898400000000     0.974100000000   
Si     0.000000000000     0.650350000000     0.898850000000   
Si     0.176625000000     0.500000000000     0.558300000000   
Si     0.176600000000     0.750000000000     0.993650000000   
O      0.168550000000     0.611500000000     0.626050000000   
O      0.187350000000     0.633400000000     0.560600000000   
O      0.187775000000     0.545750000000     0.580950000000   
O      0.187250000000     0.795700000000     0.516600000000   
O      0.206400000000     0.879550000000     0.993850000000   
Si     0.198425000000     0.598400000000     0.592400000000   
Si     0.176575000000     0.850200000000     0.521050000000   
O      0.081450000000     0.888500000000     0.626050000000   
O      0.062650000000     0.866600000000     0.560600000000   
O      0.062225000000     0.954250000000     0.580950000000   
O      0.062750000000     0.704300000000     0.516600000000   
O      0.043600000000     0.620450000000     0.993850000000   
Si     0.051575000000     0.901600000000     0.592400000000   
Si     0.073425000000     0.649800000000     0.521050000000   
O      0.206450000000     0.861500000000     0.876050000000   
O      0.187650000000     0.883400000000     0.810600000000   
O      0.125000000000     0.852850000000     0.852700000000   
O      0.187225000000     0.795750000000     0.830950000000   
O      0.187750000000     0.545700000000     0.766600000000   
O      0.168600000000     0.629550000000     0.743850000000   
O      0.000000000000     0.609350000000     0.762650000000   
O      0.125000000000     0.795650000000     0.724450000000   
O      0.125000000000     0.869150000000     0.683950000000   
O      0.125000000000     0.545550000000     0.659550000000   
O      0.000000000000     0.750000000000     0.797650000000   
O      0.168650000000     0.750000000000     0.773150000000   
O      0.000000000000     0.500000000000     0.732850000000   
O      0.168550000000     0.500000000000     0.708600000000   
Si     0.176575000000     0.848400000000     0.842400000000   
Si     0.198425000000     0.600200000000     0.771050000000   
Si     0.125000000000     0.851600000000     0.724100000000   
Si     0.125000000000     0.599650000000     0.648850000000   
Si     0.198375000000     0.750000000000     0.808300000000   
Si     0.198400000000     0.500000000000     0.743650000000   
Si     0.125000000000     0.500000000000     0.684150000000   
Si     0.125000000000     0.750000000000     0.748900000000   
O      0.043550000000     0.638500000000     0.876050000000   
O      0.062350000000     0.616600000000     0.810600000000   
O      0.125000000000     0.647150000000     0.852700000000   
O      0.062775000000     0.704250000000     0.830950000000   
O      0.062250000000     0.954300000000     0.766600000000   
O      0.081400000000     0.870450000000     0.743850000000   
O      0.000000000000     0.890650000000     0.762650000000   
O      0.125000000000     0.704350000000     0.724450000000   
O      0.125000000000     0.630850000000     0.683950000000   
O      0.125000000000     0.954450000000     0.659550000000   
O      0.081350000000     0.750000000000     0.773150000000   
O      0.081450000000     0.500000000000     0.708600000000   
Si     0.073425000000     0.651600000000     0.842400000000   
Si     0.051575000000     0.899800000000     0.771050000000   
Si     0.125000000000     0.648400000000     0.724100000000   
Si     0.125000000000     0.900350000000     0.648850000000   
Si     0.051625000000     0.750000000000     0.808300000000   
Si     0.051600000000     0.500000000000     0.743650000000   
O      0.043550000000     0.861500000000     0.876050000000   
O      0.062350000000     0.883400000000     0.810600000000   
O      0.062775000000     0.795750000000     0.830950000000   
O      0.062250000000     0.545700000000     0.766600000000   
O      0.081400000000     0.629550000000     0.743850000000   
Si     0.073425000000     0.848400000000     0.842400000000   
Si     0.051575000000     0.600200000000     0.771050000000   
O      0.206450000000     0.638500000000     0.876050000000   
O      0.187650000000     0.616600000000     0.810600000000   
O      0.187225000000     0.704250000000     0.830950000000   
O      0.187750000000     0.954300000000     0.766600000000   
O      0.168600000000     0.870450000000     0.743850000000   
Si     0.176575000000     0.651600000000     0.842400000000   
Si     0.198425000000     0.899800000000     0.771050000000   
O      0.331450000000     0.111500000000     0.126050000000   
O      0.312650000000     0.133400000000     0.060600000000   
O      0.250000000000     0.102850000000     0.102700000000   
O      0.312225000000     0.045750000000     0.080950000000   
O      0.312750000000     0.295700000000     0.016600000000   
O      0.293600000000     0.379550000000     0.493850000000   
O      0.375000000000     0.359350000000     0.012650000000   
O      0.250000000000     0.045650000000     0.474450000000   
O      0.250000000000     0.119150000000     0.433950000000   
O      0.250000000000     0.295550000000     0.409550000000   
O      0.375000000000     0.000000000000     0.047650000000   
O      0.293650000000     0.000000000000     0.023150000000   
O      0.375000000000     0.250000000000     0.482850000000   
O      0.293550000000     0.250000000000     0.458600000000   
Si     0.301575000000     0.098400000000     0.092400000000   
Si     0.323425000000     0.350200000000     0.021050000000   
Si     0.250000000000     0.101600000000     0.474100000000   
Si     0.250000000000     0.349650000000     0.398850000000   
Si     0.323375000000     0.000000000000     0.058300000000   
Si     0.323400000000     0.250000000000     0.493650000000   
Si     0.250000000000     0.250000000000     0.434150000000   
Si     0.250000000000     0.000000000000     0.498900000000   
O      0.418550000000     0.388500000000     0.126050000000   
O      0.437350000000     0.366600000000     0.060600000000   
O      0.250000000000     0.397150000000     0.102700000000   
O      0.437775000000     0.454250000000     0.080950000000   
O      0.437250000000     0.204300000000     0.016600000000   
O      0.456400000000     0.120450000000     0.493850000000   
O      0.375000000000     0.140650000000     0.012650000000   
O      0.250000000000     0.454350000000     0.474450000000   
O      0.250000000000     0.380850000000     0.433950000000   
O      0.250000000000     0.204450000000     0.409550000000   
O      0.456350000000     0.000000000000     0.023150000000   
O      0.456450000000     0.250000000000     0.458600000000   
Si     0.448425000000     0.401600000000     0.092400000000   
Si     0.426575000000     0.149800000000     0.021050000000   
Si     0.250000000000     0.398400000000     0.474100000000   
Si     0.250000000000     0.150350000000     0.398850000000   
Si     0.426625000000     0.000000000000     0.058300000000   
Si     0.426600000000     0.250000000000     0.493650000000   