%BLOCK LATTICE_CART
ang    # angstrom units
  13.675000000000    0.000000000000     0.000000000000   
 -6.837500000000     11.842897396752    0.000000000000   
  0.000000000000     0.000000000000     14.767000000000  
%ENDBLOCK LATTICE_CART

%BLOCK POSITIONS_FRAC
O      0.300666666667     0.032666666667     0.061350000000   
O      0.325566666667     0.103366666667     0.083350000000   
O      0.040100000000     0.080166666667     0.065750000000   
O      0.000000000000     0.085900000000     0.000000000000   
Si     0.333233333333     0.075466666667     0.052550000000   
O      0.300666666667     0.268000000000     0.061350000000   
O      0.229966666667     0.222200000000     0.083350000000   
O      0.253166666667     0.293266666667     0.065750000000   
O      0.247433333333     0.247433333333     0.000000000000   
Si     0.257866666667     0.257766666667     0.052550000000   
O      0.065333333333     0.032666666667     0.061350000000   
O      0.111133333333     0.007766666667     0.083350000000   
O      0.040066666667     0.293233333333     0.065750000000   
O      0.085900000000     0.000000000000     0.000000000000   
Si     0.075566666667     0.000100000000     0.052550000000   
O      0.032666666667     0.300666666667     0.438650000000   
O      0.103366666667     0.325566666667     0.416650000000   
O      0.080166666667     0.040100000000     0.434250000000   
Si     0.075466666667     0.333233333333     0.447450000000   
O      0.032666666667     0.065333333333     0.438650000000   
O      0.007766666667     0.111133333333     0.416650000000   
O      0.293233333333     0.040066666667     0.434250000000   
Si     0.000100000000     0.075566666667     0.447450000000   
O      0.268000000000     0.300666666667     0.438650000000   
O      0.222200000000     0.229966666667     0.416650000000   
O      0.293266666667     0.253166666667     0.434250000000   
Si     0.257766666667     0.257866666667     0.447450000000   
O      0.007766666667     0.229966666667     0.416650000000   
O      0.000000000000     0.247433333333     0.000000000000   
Si     0.000100000000     0.257866666667     0.447450000000   
O      0.103366666667     0.111133333333     0.416650000000   
O      0.085900000000     0.085900000000     0.000000000000   
Si     0.075466666667     0.075566666667     0.447450000000   
O      0.222200000000     0.325566666667     0.416650000000   
O      0.247433333333     0.000000000000     0.000000000000   
Si     0.257766666667     0.333233333333     0.447450000000   
O      0.229966666667     0.007766666667     0.083350000000   
Si     0.257866666667     0.000100000000     0.052550000000   
O      0.325566666667     0.222200000000     0.083350000000   
Si     0.333233333333     0.257766666667     0.052550000000   
O      0.111133333333     0.103366666667     0.083350000000   
Si     0.075566666667     0.075466666667     0.052550000000   
O      0.189555555556     0.143777777778     0.228016666667   
O      0.214455555556     0.214477777778     0.250016666667   
O      0.262322222222     0.191277777778     0.232416666667   
O      0.222222222222     0.197011111111     0.166666666667   
Si     0.222122222222     0.186577777778     0.219216666667   
O      0.189555555556     0.045777777778     0.228016666667   
O      0.118855555556     0.333311111111     0.250016666667   
O      0.142055555556     0.071044444444     0.232416666667   
O      0.136322222222     0.025211111111     0.166666666667   
Si     0.146755555556     0.035544444444     0.219216666667   
O      0.287555555556     0.143777777778     0.228016666667   
O      0.000022222222     0.118877777778     0.250016666667   
O      0.262288888889     0.071011111111     0.232416666667   
O      0.308122222222     0.111111111111     0.166666666667   
Si     0.297788888889     0.111211111111     0.219216666667   
O      0.254888888889     0.078444444444     0.105316666667   
O      0.302388888889     0.151211111111     0.100916666667   
Si     0.297688888889     0.111011111111     0.114116666667   
O      0.254888888889     0.176444444444     0.105316666667   
O      0.182122222222     0.151177777778     0.100916666667   
Si     0.222322222222     0.186677777778     0.114116666667   
O      0.156888888889     0.078444444444     0.105316666667   
O      0.182155555556     0.030944444444     0.100916666667   
Si     0.146655555556     0.035644444444     0.114116666667   
O      0.222222222222     0.025211111111     0.166666666667   
Si     0.222322222222     0.035644444444     0.114116666667   
O      0.308122222222     0.197011111111     0.166666666667   
Si     0.297688888889     0.186677777778     0.114116666667   
O      0.136322222222     0.111111111111     0.166666666667   
Si     0.146655555556     0.111011111111     0.114116666667   
O      0.118855555556     0.118877777778     0.250016666667   
Si     0.146755555556     0.111211111111     0.219216666667   
O      0.214455555556     0.333311111111     0.250016666667   
Si     0.222122222222     0.035544444444     0.219216666667   
O      0.000022222222     0.214477777778     0.250016666667   
Si     0.297788888889     0.186577777778     0.219216666667   
O      0.078444444444     0.254888888889     0.394683333333   
O      0.151211111111     0.302388888889     0.399083333333   
O      0.111111111111     0.308122222222     0.333333333333   
Si     0.111011111111     0.297688888889     0.385883333333   
O      0.078444444444     0.156888888889     0.394683333333   
O      0.030944444444     0.182155555556     0.399083333333   
O      0.025211111111     0.136322222222     0.333333333333   
Si     0.035644444444     0.146655555556     0.385883333333   
O      0.176444444444     0.254888888889     0.394683333333   
O      0.151177777778     0.182122222222     0.399083333333   
O      0.197011111111     0.222222222222     0.333333333333   
Si     0.186677777778     0.222322222222     0.385883333333   
O      0.143777777778     0.189555555556     0.271983333333   
O      0.191277777778     0.262322222222     0.267583333333   
Si     0.186577777778     0.222122222222     0.280783333333   
O      0.143777777778     0.287555555556     0.271983333333   
O      0.118877777778     0.000022222222     0.249983333333   
O      0.071011111111     0.262288888889     0.267583333333   
Si     0.111211111111     0.297788888889     0.280783333333   
O      0.045777777778     0.189555555556     0.271983333333   
O      0.333311111111     0.118855555556     0.249983333333   
O      0.071044444444     0.142055555556     0.267583333333   
Si     0.035544444444     0.146755555556     0.280783333333   
O      0.111111111111     0.136322222222     0.333333333333   
Si     0.111211111111     0.146755555556     0.280783333333   
O      0.214477777778     0.000022222222     0.249983333333   
O      0.197011111111     0.308122222222     0.333333333333   
Si     0.186577777778     0.297788888889     0.280783333333   
O      0.333311111111     0.214455555556     0.249983333333   
O      0.025211111111     0.222222222222     0.333333333333   
Si     0.035544444444     0.222122222222     0.280783333333   
Si     0.035644444444     0.222322222222     0.385883333333   
Si     0.111011111111     0.146655555556     0.385883333333   
Si     0.186677777778     0.297688888889     0.385883333333   
O      0.300666666667     0.032666666667     0.561350000000   
O      0.325566666667     0.103366666667     0.583350000000   
O      0.040100000000     0.080166666667     0.565750000000   
O      0.000000000000     0.085900000000     0.500000000000   
Si     0.333233333333     0.075466666667     0.552550000000   
O      0.300666666667     0.268000000000     0.561350000000   
O      0.229966666667     0.222200000000     0.583350000000   
O      0.253166666667     0.293266666667     0.565750000000   
O      0.247433333333     0.247433333333     0.500000000000   
Si     0.257866666667     0.257766666667     0.552550000000   
O      0.065333333333     0.032666666667     0.561350000000   
O      0.111133333333     0.007766666667     0.583350000000   
O      0.040066666667     0.293233333333     0.565750000000   
O      0.085900000000     0.000000000000     0.500000000000   
Si     0.075566666667     0.000100000000     0.552550000000   
O      0.032666666667     0.300666666667     0.938650000000   
O      0.103366666667     0.325566666667     0.916650000000   
O      0.080166666667     0.040100000000     0.934250000000   
Si     0.075466666667     0.333233333333     0.947450000000   
O      0.032666666667     0.065333333333     0.938650000000   
O      0.007766666667     0.111133333333     0.916650000000   
O      0.293233333333     0.040066666667     0.934250000000   
Si     0.000100000000     0.075566666667     0.947450000000   
O      0.268000000000     0.300666666667     0.938650000000   
O      0.222200000000     0.229966666667     0.916650000000   
O      0.293266666667     0.253166666667     0.934250000000   
Si     0.257766666667     0.257866666667     0.947450000000   
O      0.007766666667     0.229966666667     0.916650000000   
O      0.000000000000     0.247433333333     0.500000000000   
Si     0.000100000000     0.257866666667     0.947450000000   
O      0.103366666667     0.111133333333     0.916650000000   
O      0.085900000000     0.085900000000     0.500000000000   
Si     0.075466666667     0.075566666667     0.947450000000   
O      0.222200000000     0.325566666667     0.916650000000   
O      0.247433333333     0.000000000000     0.500000000000   
Si     0.257766666667     0.333233333333     0.947450000000   
O      0.229966666667     0.007766666667     0.583350000000   
Si     0.257866666667     0.000100000000     0.552550000000   
O      0.325566666667     0.222200000000     0.583350000000   
Si     0.333233333333     0.257766666667     0.552550000000   
O      0.111133333333     0.103366666667     0.583350000000   
Si     0.075566666667     0.075466666667     0.552550000000   
O      0.189555555556     0.143777777778     0.728016666667   
O      0.214455555556     0.214477777778     0.750016666667   
O      0.262322222222     0.191277777778     0.732416666667   
O      0.222222222222     0.197011111111     0.666666666667   
Si     0.222122222222     0.186577777778     0.719216666667   
O      0.189555555556     0.045777777778     0.728016666667   
O      0.118855555556     0.333311111111     0.750016666667   
O      0.142055555556     0.071044444444     0.732416666667   
O      0.136322222222     0.025211111111     0.666666666667   
Si     0.146755555556     0.035544444444     0.719216666667   
O      0.287555555556     0.143777777778     0.728016666667   
O      0.000022222222     0.118877777778     0.750016666667   
O      0.262288888889     0.071011111111     0.732416666667   
O      0.308122222222     0.111111111111     0.666666666667   
Si     0.297788888889     0.111211111111     0.719216666667   
O      0.254888888889     0.078444444444     0.605316666667   
O      0.302388888889     0.151211111111     0.600916666667   
Si     0.297688888889     0.111011111111     0.614116666667   
O      0.254888888889     0.176444444444     0.605316666667   
O      0.182122222222     0.151177777778     0.600916666667   
Si     0.222322222222     0.186677777778     0.614116666667   
O      0.156888888889     0.078444444444     0.605316666667   
O      0.182155555556     0.030944444444     0.600916666667   
Si     0.146655555556     0.035644444444     0.614116666667   
O      0.222222222222     0.025211111111     0.666666666667   
Si     0.222322222222     0.035644444444     0.614116666667   
O      0.308122222222     0.197011111111     0.666666666667   
Si     0.297688888889     0.186677777778     0.614116666667   
O      0.136322222222     0.111111111111     0.666666666667   
Si     0.146655555556     0.111011111111     0.614116666667   
O      0.118855555556     0.118877777778     0.750016666667   
Si     0.146755555556     0.111211111111     0.719216666667   
O      0.214455555556     0.333311111111     0.750016666667   
Si     0.222122222222     0.035544444444     0.719216666667   
O      0.000022222222     0.214477777778     0.750016666667   
Si     0.297788888889     0.186577777778     0.719216666667   
O      0.078444444444     0.254888888889     0.894683333333   
O      0.151211111111     0.302388888889     0.899083333333   
O      0.111111111111     0.308122222222     0.833333333333   
Si     0.111011111111     0.297688888889     0.885883333333   
O      0.078444444444     0.156888888889     0.894683333333   
O      0.030944444444     0.182155555556     0.899083333333   
O      0.025211111111     0.136322222222     0.833333333333   
Si     0.035644444444     0.146655555556     0.885883333333   
O      0.176444444444     0.254888888889     0.894683333333   
O      0.151177777778     0.182122222222     0.899083333333   
O      0.197011111111     0.222222222222     0.833333333333   
Si     0.186677777778     0.222322222222     0.885883333333   
O      0.143777777778     0.189555555556     0.771983333333   
O      0.191277777778     0.262322222222     0.767583333333   
Si     0.186577777778     0.222122222222     0.780783333333   
O      0.143777777778     0.287555555556     0.771983333333   
O      0.118877777778     0.000022222222     0.749983333333   
O      0.071011111111     0.262288888889     0.767583333333   
Si     0.111211111111     0.297788888889     0.780783333333   
O      0.045777777778     0.189555555556     0.771983333333   
O      0.333311111111     0.118855555556     0.749983333333   
O      0.071044444444     0.142055555556     0.767583333333   
Si     0.035544444444     0.146755555556     0.780783333333   
O      0.111111111111     0.136322222222     0.833333333333   
Si     0.111211111111     0.146755555556     0.780783333333   
O      0.214477777778     0.000022222222     0.749983333333   
O      0.197011111111     0.308122222222     0.833333333333   
Si     0.186577777778     0.297788888889     0.780783333333   
O      0.333311111111     0.214455555556     0.749983333333   
O      0.025211111111     0.222222222222     0.833333333333   
Si     0.035544444444     0.222122222222     0.780783333333   
Si     0.035644444444     0.222322222222     0.885883333333   
Si     0.111011111111     0.146655555556     0.885883333333   
Si     0.186677777778     0.297688888889     0.885883333333   
O      0.300666666667     0.366000000000     0.061350000000   
O      0.325566666667     0.436700000000     0.083350000000   
O      0.040100000000     0.413500000000     0.065750000000   
O      0.000000000000     0.419233333333     0.000000000000   
Si     0.333233333333     0.408800000000     0.052550000000   
O      0.300666666667     0.601333333333     0.061350000000   
O      0.229966666667     0.555533333333     0.083350000000   
O      0.253166666667     0.626600000000     0.065750000000   
O      0.247433333333     0.580766666667     0.000000000000   
Si     0.257866666667     0.591100000000     0.052550000000   
O      0.065333333333     0.366000000000     0.061350000000   
O      0.111133333333     0.341100000000     0.083350000000   
O      0.040066666667     0.626566666667     0.065750000000   
O      0.085900000000     0.333333333333     0.000000000000   
Si     0.075566666667     0.333433333333     0.052550000000   
O      0.032666666667     0.634000000000     0.438650000000   
O      0.103366666667     0.658900000000     0.416650000000   
O      0.080166666667     0.373433333333     0.434250000000   
Si     0.075466666667     0.666566666667     0.447450000000   
O      0.032666666667     0.398666666667     0.438650000000   
O      0.007766666667     0.444466666667     0.416650000000   
O      0.293233333333     0.373400000000     0.434250000000   
Si     0.000100000000     0.408900000000     0.447450000000   
O      0.268000000000     0.634000000000     0.438650000000   
O      0.222200000000     0.563300000000     0.416650000000   
O      0.293266666667     0.586500000000     0.434250000000   
Si     0.257766666667     0.591200000000     0.447450000000   
O      0.007766666667     0.563300000000     0.416650000000   
O      0.000000000000     0.580766666667     0.000000000000   
Si     0.000100000000     0.591200000000     0.447450000000   
O      0.103366666667     0.444466666667     0.416650000000   
O      0.085900000000     0.419233333333     0.000000000000   
Si     0.075466666667     0.408900000000     0.447450000000   
O      0.222200000000     0.658900000000     0.416650000000   
O      0.247433333333     0.333333333333     0.000000000000   
Si     0.257766666667     0.666566666667     0.447450000000   
O      0.229966666667     0.341100000000     0.083350000000   
Si     0.257866666667     0.333433333333     0.052550000000   
O      0.325566666667     0.555533333333     0.083350000000   
Si     0.333233333333     0.591100000000     0.052550000000   
O      0.111133333333     0.436700000000     0.083350000000   
Si     0.075566666667     0.408800000000     0.052550000000   
O      0.189555555556     0.477111111111     0.228016666667   
O      0.214455555556     0.547811111111     0.250016666667   
O      0.262322222222     0.524611111111     0.232416666667   
O      0.222222222222     0.530344444444     0.166666666667   
Si     0.222122222222     0.519911111111     0.219216666667   
O      0.189555555556     0.379111111111     0.228016666667   
O      0.118855555556     0.666644444444     0.250016666667   
O      0.142055555556     0.404377777778     0.232416666667   
O      0.136322222222     0.358544444444     0.166666666667   
Si     0.146755555556     0.368877777778     0.219216666667   
O      0.287555555556     0.477111111111     0.228016666667   
O      0.000022222222     0.452211111111     0.250016666667   
O      0.262288888889     0.404344444444     0.232416666667   
O      0.308122222222     0.444444444444     0.166666666667   
Si     0.297788888889     0.444544444444     0.219216666667   
O      0.254888888889     0.411777777778     0.105316666667   
O      0.302388888889     0.484544444444     0.100916666667   
Si     0.297688888889     0.444344444444     0.114116666667   
O      0.254888888889     0.509777777778     0.105316666667   
O      0.182122222222     0.484511111111     0.100916666667   
Si     0.222322222222     0.520011111111     0.114116666667   
O      0.156888888889     0.411777777778     0.105316666667   
O      0.182155555556     0.364277777778     0.100916666667   
Si     0.146655555556     0.368977777778     0.114116666667   
O      0.222222222222     0.358544444444     0.166666666667   
Si     0.222322222222     0.368977777778     0.114116666667   
O      0.308122222222     0.530344444444     0.166666666667   
Si     0.297688888889     0.520011111111     0.114116666667   
O      0.136322222222     0.444444444444     0.166666666667   
Si     0.146655555556     0.444344444444     0.114116666667   
O      0.118855555556     0.452211111111     0.250016666667   
Si     0.146755555556     0.444544444444     0.219216666667   
O      0.214455555556     0.666644444444     0.250016666667   
Si     0.222122222222     0.368877777778     0.219216666667   
O      0.000022222222     0.547811111111     0.250016666667   
Si     0.297788888889     0.519911111111     0.219216666667   
O      0.078444444444     0.588222222222     0.394683333333   
O      0.151211111111     0.635722222222     0.399083333333   
O      0.111111111111     0.641455555556     0.333333333333   
Si     0.111011111111     0.631022222222     0.385883333333   
O      0.078444444444     0.490222222222     0.394683333333   
O      0.030944444444     0.515488888889     0.399083333333   
O      0.025211111111     0.469655555556     0.333333333333   
Si     0.035644444444     0.479988888889     0.385883333333   
O      0.176444444444     0.588222222222     0.394683333333   
O      0.151177777778     0.515455555556     0.399083333333   
O      0.197011111111     0.555555555556     0.333333333333   
Si     0.186677777778     0.555655555556     0.385883333333   
O      0.143777777778     0.522888888889     0.271983333333   
O      0.191277777778     0.595655555556     0.267583333333   
Si     0.186577777778     0.555455555556     0.280783333333   
O      0.143777777778     0.620888888889     0.271983333333   
O      0.071011111111     0.595622222222     0.267583333333   
Si     0.111211111111     0.631122222222     0.280783333333   
O      0.045777777778     0.522888888889     0.271983333333   
O      0.333311111111     0.452188888889     0.249983333333   
O      0.071044444444     0.475388888889     0.267583333333   
Si     0.035544444444     0.480088888889     0.280783333333   
O      0.111111111111     0.469655555556     0.333333333333   
Si     0.111211111111     0.480088888889     0.280783333333   
O      0.197011111111     0.641455555556     0.333333333333   
Si     0.186577777778     0.631122222222     0.280783333333   
O      0.333311111111     0.547788888889     0.249983333333   
O      0.025211111111     0.555555555556     0.333333333333   
Si     0.035544444444     0.555455555556     0.280783333333   
Si     0.035644444444     0.555655555556     0.385883333333   
Si     0.111011111111     0.479988888889     0.385883333333   
Si     0.186677777778     0.631022222222     0.385883333333   
O      0.300666666667     0.366000000000     0.561350000000   
O      0.325566666667     0.436700000000     0.583350000000   
O      0.040100000000     0.413500000000     0.565750000000   
O      0.000000000000     0.419233333333     0.500000000000   
Si     0.333233333333     0.408800000000     0.552550000000   
O      0.300666666667     0.601333333333     0.561350000000   
O      0.229966666667     0.555533333333     0.583350000000   
O      0.253166666667     0.626600000000     0.565750000000   
O      0.247433333333     0.580766666667     0.500000000000   
Si     0.257866666667     0.591100000000     0.552550000000   
O      0.065333333333     0.366000000000     0.561350000000   
O      0.111133333333     0.341100000000     0.583350000000   
O      0.040066666667     0.626566666667     0.565750000000   
O      0.085900000000     0.333333333333     0.500000000000   
Si     0.075566666667     0.333433333333     0.552550000000   
O      0.032666666667     0.634000000000     0.938650000000   
O      0.103366666667     0.658900000000     0.916650000000   
O      0.080166666667     0.373433333333     0.934250000000   
Si     0.075466666667     0.666566666667     0.947450000000   
O      0.032666666667     0.398666666667     0.938650000000   
O      0.007766666667     0.444466666667     0.916650000000   
O      0.293233333333     0.373400000000     0.934250000000   
Si     0.000100000000     0.408900000000     0.947450000000   
O      0.268000000000     0.634000000000     0.938650000000   
O      0.222200000000     0.563300000000     0.916650000000   
O      0.293266666667     0.586500000000     0.934250000000   
Si     0.257766666667     0.591200000000     0.947450000000   
O      0.007766666667     0.563300000000     0.916650000000   
O      0.000000000000     0.580766666667     0.500000000000   
Si     0.000100000000     0.591200000000     0.947450000000   
O      0.103366666667     0.444466666667     0.916650000000   
O      0.085900000000     0.419233333333     0.500000000000   
Si     0.075466666667     0.408900000000     0.947450000000   
O      0.222200000000     0.658900000000     0.916650000000   
O      0.247433333333     0.333333333333     0.500000000000   
Si     0.257766666667     0.666566666667     0.947450000000   
O      0.229966666667     0.341100000000     0.583350000000   
Si     0.257866666667     0.333433333333     0.552550000000   
O      0.325566666667     0.555533333333     0.583350000000   
Si     0.333233333333     0.591100000000     0.552550000000   
O      0.111133333333     0.436700000000     0.583350000000   
Si     0.075566666667     0.408800000000     0.552550000000   
O      0.189555555556     0.477111111111     0.728016666667   
O      0.214455555556     0.547811111111     0.750016666667   
O      0.262322222222     0.524611111111     0.732416666667   
O      0.222222222222     0.530344444444     0.666666666667   
Si     0.222122222222     0.519911111111     0.719216666667   
O      0.189555555556     0.379111111111     0.728016666667   
O      0.118855555556     0.666644444444     0.750016666667   
O      0.142055555556     0.404377777778     0.732416666667   
O      0.136322222222     0.358544444444     0.666666666667   
Si     0.146755555556     0.368877777778     0.719216666667   
O      0.287555555556     0.477111111111     0.728016666667   
O      0.000022222222     0.452211111111     0.750016666667   
O      0.262288888889     0.404344444444     0.732416666667   
O      0.308122222222     0.444444444444     0.666666666667   
Si     0.297788888889     0.444544444444     0.719216666667   
O      0.254888888889     0.411777777778     0.605316666667   
O      0.302388888889     0.484544444444     0.600916666667   
Si     0.297688888889     0.444344444444     0.614116666667   
O      0.254888888889     0.509777777778     0.605316666667   
O      0.182122222222     0.484511111111     0.600916666667   
Si     0.222322222222     0.520011111111     0.614116666667   
O      0.156888888889     0.411777777778     0.605316666667   
O      0.182155555556     0.364277777778     0.600916666667   
Si     0.146655555556     0.368977777778     0.614116666667   
O      0.222222222222     0.358544444444     0.666666666667   
Si     0.222322222222     0.368977777778     0.614116666667   
O      0.308122222222     0.530344444444     0.666666666667   
Si     0.297688888889     0.520011111111     0.614116666667   
O      0.136322222222     0.444444444444     0.666666666667   
Si     0.146655555556     0.444344444444     0.614116666667   
O      0.118855555556     0.452211111111     0.750016666667   
Si     0.146755555556     0.444544444444     0.719216666667   
O      0.214455555556     0.666644444444     0.750016666667   
Si     0.222122222222     0.368877777778     0.719216666667   
O      0.000022222222     0.547811111111     0.750016666667   
Si     0.297788888889     0.519911111111     0.719216666667   
O      0.078444444444     0.588222222222     0.894683333333   
O      0.151211111111     0.635722222222     0.899083333333   
O      0.111111111111     0.641455555556     0.833333333333   
Si     0.111011111111     0.631022222222     0.885883333333   
O      0.078444444444     0.490222222222     0.894683333333   
O      0.030944444444     0.515488888889     0.899083333333   
O      0.025211111111     0.469655555556     0.833333333333   
Si     0.035644444444     0.479988888889     0.885883333333   
O      0.176444444444     0.588222222222     0.894683333333   
O      0.151177777778     0.515455555556     0.899083333333   
O      0.197011111111     0.555555555556     0.833333333333   
Si     0.186677777778     0.555655555556     0.885883333333   
O      0.143777777778     0.522888888889     0.771983333333   
O      0.191277777778     0.595655555556     0.767583333333   
Si     0.186577777778     0.555455555556     0.780783333333   
O      0.143777777778     0.620888888889     0.771983333333   
O      0.071011111111     0.595622222222     0.767583333333   
Si     0.111211111111     0.631122222222     0.780783333333   
O      0.045777777778     0.522888888889     0.771983333333   
O      0.333311111111     0.452188888889     0.749983333333   
O      0.071044444444     0.475388888889     0.767583333333   
Si     0.035544444444     0.480088888889     0.780783333333   
O      0.111111111111     0.469655555556     0.833333333333   
Si     0.111211111111     0.480088888889     0.780783333333   
O      0.197011111111     0.641455555556     0.833333333333   
Si     0.186577777778     0.631122222222     0.780783333333   
O      0.333311111111     0.547788888889     0.749983333333   
O      0.025211111111     0.555555555556     0.833333333333   
Si     0.035544444444     0.555455555556     0.780783333333   
Si     0.035644444444     0.555655555556     0.885883333333   
Si     0.111011111111     0.479988888889     0.885883333333   
Si     0.186677777778     0.631022222222     0.885883333333   
O      0.300666666667     0.699333333333     0.061350000000   
O      0.325566666667     0.770033333333     0.083350000000   
O      0.040100000000     0.746833333333     0.065750000000   
O      0.000000000000     0.752566666667     0.000000000000   
Si     0.333233333333     0.742133333333     0.052550000000   
O      0.300666666667     0.934666666667     0.061350000000   
O      0.229966666667     0.888866666667     0.083350000000   
O      0.253166666667     0.959933333333     0.065750000000   
O      0.247433333333     0.914100000000     0.000000000000   
Si     0.257866666667     0.924433333333     0.052550000000   
O      0.065333333333     0.699333333333     0.061350000000   
O      0.111133333333     0.674433333333     0.083350000000   
O      0.040066666667     0.959900000000     0.065750000000   
O      0.085900000000     0.666666666667     0.000000000000   
Si     0.075566666667     0.666766666667     0.052550000000   
O      0.032666666667     0.967333333333     0.438650000000   
O      0.103366666667     0.992233333333     0.416650000000   
O      0.080166666667     0.706766666667     0.434250000000   
Si     0.075466666667     0.999900000000     0.447450000000   
O      0.032666666667     0.732000000000     0.438650000000   
O      0.007766666667     0.777800000000     0.416650000000   
O      0.293233333333     0.706733333333     0.434250000000   
Si     0.000100000000     0.742233333333     0.447450000000   
O      0.268000000000     0.967333333333     0.438650000000   
O      0.222200000000     0.896633333333     0.416650000000   
O      0.293266666667     0.919833333333     0.434250000000   
Si     0.257766666667     0.924533333333     0.447450000000   
O      0.007766666667     0.896633333333     0.416650000000   