%BLOCK LATTICE_CART
ang    # angstrom units
  16.018500000000    0.000000000000     0.000000000000   
  0.000000000000     9.665500000000     0.000000000000   
  0.000000000000     0.000000000000     16.833100000000  
%ENDBLOCK LATTICE_CART

%BLOCK POSITIONS_FRAC
O      0.091300000000     0.016300000000     0.497300000000   
O      0.145050000000     0.053466666667     0.047600000000   
O      0.108400000000     0.308266666667     0.064900000000   
O      0.065400000000     0.051800000000     0.064900000000   
O      0.038100000000     0.262733333333     0.075200000000   
O      0.101950000000     0.246766666667     0.122000000000   
O      0.478850000000     0.261200000000     0.129750000000   
O      0.462500000000     0.291433333333     0.057600000000   
O      0.009500000000     0.006533333333     0.106300000000   
O      0.079200000000     0.035133333333     0.140200000000   
O      0.150000000000     0.012300000000     0.173850000000   
O      0.136300000000     0.258200000000     0.191750000000   
Si     0.102650000000     0.024066666667     0.043350000000   
Si     0.497300000000     0.288633333333     0.092050000000   
Si     0.122800000000     0.054633333333     0.157050000000   
Si     0.164200000000     0.303033333333     0.201350000000   
Si     0.088200000000     0.259500000000     0.077350000000   
Si     0.043750000000     0.047100000000     0.107900000000   
O      0.158700000000     0.317033333333     0.247300000000   
O      0.104950000000     0.279866666667     0.297600000000   
O      0.141600000000     0.025066666667     0.314900000000   
O      0.184600000000     0.281533333333     0.314900000000   
O      0.211900000000     0.070600000000     0.325200000000   
O      0.148050000000     0.086566666667     0.372000000000   
O      0.271150000000     0.072133333333     0.379750000000   
O      0.287500000000     0.041900000000     0.307600000000   
O      0.240500000000     0.326800000000     0.356300000000   
O      0.170800000000     0.298200000000     0.390200000000   
O      0.100000000000     0.321033333333     0.423850000000   
O      0.113700000000     0.075133333333     0.441750000000   
Si     0.147350000000     0.309266666667     0.293350000000   
Si     0.252700000000     0.044700000000     0.342050000000   
Si     0.127200000000     0.278700000000     0.407050000000   
Si     0.085800000000     0.030300000000     0.451350000000   
Si     0.161800000000     0.073833333333     0.327350000000   
Si     0.206250000000     0.286233333333     0.357900000000   
O      0.341300000000     0.150366666667     0.002700000000   
O      0.395050000000     0.113200000000     0.452400000000   
O      0.358400000000     0.191733333333     0.435100000000   
O      0.315400000000     0.114866666667     0.435100000000   
O      0.288100000000     0.237266666667     0.424800000000   
O      0.351950000000     0.253233333333     0.378000000000   
O      0.228850000000     0.238800000000     0.370250000000   
O      0.212500000000     0.208566666667     0.442400000000   
O      0.259500000000     0.160133333333     0.393700000000   
O      0.329200000000     0.131533333333     0.359800000000   
O      0.400000000000     0.154366666667     0.326150000000   
O      0.386300000000     0.241800000000     0.308250000000   
Si     0.352650000000     0.142600000000     0.456650000000   
Si     0.247300000000     0.211366666667     0.407950000000   
Si     0.372800000000     0.112033333333     0.342950000000   
Si     0.414200000000     0.196966666667     0.298650000000   
Si     0.338200000000     0.240500000000     0.422650000000   
Si     0.293750000000     0.119566666667     0.392100000000   
O      0.408700000000     0.182966666667     0.252700000000   
O      0.354950000000     0.220133333333     0.202400000000   
O      0.391600000000     0.141600000000     0.185100000000   
O      0.434600000000     0.218466666667     0.185100000000   
O      0.461900000000     0.096066666667     0.174800000000   
O      0.398050000000     0.080100000000     0.128000000000   
O      0.021150000000     0.094533333333     0.120250000000   
O      0.037500000000     0.124766666667     0.192400000000   
O      0.490500000000     0.173200000000     0.143700000000   
O      0.420800000000     0.201800000000     0.109800000000   
O      0.350000000000     0.178966666667     0.076150000000   
O      0.363700000000     0.091533333333     0.058250000000   
Si     0.397350000000     0.190733333333     0.206650000000   
Si     0.002700000000     0.121966666667     0.157950000000   
Si     0.377200000000     0.221300000000     0.092950000000   
Si     0.335800000000     0.136366666667     0.048650000000   
Si     0.411800000000     0.092833333333     0.172650000000   
Si     0.456250000000     0.213766666667     0.142100000000   
O      0.408700000000     0.317033333333     0.002700000000   
O      0.354950000000     0.279866666667     0.452400000000   
O      0.391600000000     0.025066666667     0.435100000000   
O      0.434600000000     0.281533333333     0.435100000000   
O      0.461900000000     0.070600000000     0.424800000000   
O      0.398050000000     0.086566666667     0.378000000000   
O      0.021150000000     0.072133333333     0.370250000000   
O      0.037500000000     0.041900000000     0.442400000000   
O      0.490500000000     0.326800000000     0.393700000000   
O      0.420800000000     0.298200000000     0.359800000000   
O      0.350000000000     0.321033333333     0.326150000000   
O      0.363700000000     0.075133333333     0.308250000000   
Si     0.397350000000     0.309266666667     0.456650000000   
Si     0.002700000000     0.044700000000     0.407950000000   
Si     0.377200000000     0.278700000000     0.342950000000   
Si     0.335800000000     0.030300000000     0.298650000000   
Si     0.411800000000     0.073833333333     0.422650000000   
Si     0.456250000000     0.286233333333     0.392100000000   
O      0.341300000000     0.016300000000     0.252700000000   
O      0.395050000000     0.053466666667     0.202400000000   
O      0.358400000000     0.308266666667     0.185100000000   
O      0.315400000000     0.051800000000     0.185100000000   
O      0.288100000000     0.262733333333     0.174800000000   
O      0.351950000000     0.246766666667     0.128000000000   
O      0.228850000000     0.261200000000     0.120250000000   
O      0.212500000000     0.291433333333     0.192400000000   
O      0.259500000000     0.006533333333     0.143700000000   
O      0.329200000000     0.035133333333     0.109800000000   
O      0.400000000000     0.012300000000     0.076150000000   
O      0.386300000000     0.258200000000     0.058250000000   
Si     0.352650000000     0.024066666667     0.206650000000   
Si     0.247300000000     0.288633333333     0.157950000000   
Si     0.372800000000     0.054633333333     0.092950000000   
Si     0.414200000000     0.303033333333     0.048650000000   
Si     0.338200000000     0.259500000000     0.172650000000   
Si     0.293750000000     0.047100000000     0.142100000000   
O      0.158700000000     0.182966666667     0.497300000000   
O      0.104950000000     0.220133333333     0.047600000000   
O      0.141600000000     0.141600000000     0.064900000000   
O      0.184600000000     0.218466666667     0.064900000000   
O      0.211900000000     0.096066666667     0.075200000000   
O      0.148050000000     0.080100000000     0.122000000000   
O      0.271150000000     0.094533333333     0.129750000000   
O      0.287500000000     0.124766666667     0.057600000000   
O      0.240500000000     0.173200000000     0.106300000000   
O      0.170800000000     0.201800000000     0.140200000000   
O      0.100000000000     0.178966666667     0.173850000000   
O      0.113700000000     0.091533333333     0.191750000000   
Si     0.147350000000     0.190733333333     0.043350000000   
Si     0.252700000000     0.121966666667     0.092050000000   
Si     0.127200000000     0.221300000000     0.157050000000   
Si     0.085800000000     0.136366666667     0.201350000000   
Si     0.161800000000     0.092833333333     0.077350000000   
Si     0.206250000000     0.213766666667     0.107900000000   
O      0.091300000000     0.150366666667     0.247300000000   
O      0.145050000000     0.113200000000     0.297600000000   
O      0.108400000000     0.191733333333     0.314900000000   
O      0.065400000000     0.114866666667     0.314900000000   
O      0.038100000000     0.237266666667     0.325200000000   
O      0.101950000000     0.253233333333     0.372000000000   
O      0.478850000000     0.238800000000     0.379750000000   
O      0.462500000000     0.208566666667     0.307600000000   
O      0.009500000000     0.160133333333     0.356300000000   
O      0.079200000000     0.131533333333     0.390200000000   
O      0.150000000000     0.154366666667     0.423850000000   
O      0.136300000000     0.241800000000     0.441750000000   
Si     0.102650000000     0.142600000000     0.293350000000   
Si     0.497300000000     0.211366666667     0.342050000000   
Si     0.122800000000     0.112033333333     0.407050000000   
Si     0.164200000000     0.196966666667     0.451350000000   
Si     0.088200000000     0.240500000000     0.327350000000   
Si     0.043750000000     0.119566666667     0.357900000000   
O      0.091300000000     0.016300000000     0.997300000000   
O      0.145050000000     0.053466666667     0.547600000000   
O      0.108400000000     0.308266666667     0.564900000000   
O      0.065400000000     0.051800000000     0.564900000000   
O      0.038100000000     0.262733333333     0.575200000000   
O      0.101950000000     0.246766666667     0.622000000000   
O      0.478850000000     0.261200000000     0.629750000000   
O      0.462500000000     0.291433333333     0.557600000000   
O      0.009500000000     0.006533333333     0.606300000000   
O      0.079200000000     0.035133333333     0.640200000000   
O      0.150000000000     0.012300000000     0.673850000000   
O      0.136300000000     0.258200000000     0.691750000000   
Si     0.102650000000     0.024066666667     0.543350000000   
Si     0.497300000000     0.288633333333     0.592050000000   
Si     0.122800000000     0.054633333333     0.657050000000   
Si     0.164200000000     0.303033333333     0.701350000000   
Si     0.088200000000     0.259500000000     0.577350000000   
Si     0.043750000000     0.047100000000     0.607900000000   
O      0.158700000000     0.317033333333     0.747300000000   
O      0.104950000000     0.279866666667     0.797600000000   
O      0.141600000000     0.025066666667     0.814900000000   
O      0.184600000000     0.281533333333     0.814900000000   
O      0.211900000000     0.070600000000     0.825200000000   
O      0.148050000000     0.086566666667     0.872000000000   
O      0.271150000000     0.072133333333     0.879750000000   
O      0.287500000000     0.041900000000     0.807600000000   
O      0.240500000000     0.326800000000     0.856300000000   
O      0.170800000000     0.298200000000     0.890200000000   
O      0.100000000000     0.321033333333     0.923850000000   
O      0.113700000000     0.075133333333     0.941750000000   
Si     0.147350000000     0.309266666667     0.793350000000   
Si     0.252700000000     0.044700000000     0.842050000000   
Si     0.127200000000     0.278700000000     0.907050000000   
Si     0.085800000000     0.030300000000     0.951350000000   
Si     0.161800000000     0.073833333333     0.827350000000   
Si     0.206250000000     0.286233333333     0.857900000000   
O      0.341300000000     0.150366666667     0.502700000000   
O      0.395050000000     0.113200000000     0.952400000000   
O      0.358400000000     0.191733333333     0.935100000000   
O      0.315400000000     0.114866666667     0.935100000000   
O      0.288100000000     0.237266666667     0.924800000000   
O      0.351950000000     0.253233333333     0.878000000000   
O      0.228850000000     0.238800000000     0.870250000000   
O      0.212500000000     0.208566666667     0.942400000000   
O      0.259500000000     0.160133333333     0.893700000000   
O      0.329200000000     0.131533333333     0.859800000000   
O      0.400000000000     0.154366666667     0.826150000000   
O      0.386300000000     0.241800000000     0.808250000000   
Si     0.352650000000     0.142600000000     0.956650000000   
Si     0.247300000000     0.211366666667     0.907950000000   
Si     0.372800000000     0.112033333333     0.842950000000   
Si     0.414200000000     0.196966666667     0.798650000000   
Si     0.338200000000     0.240500000000     0.922650000000   
Si     0.293750000000     0.119566666667     0.892100000000   
O      0.408700000000     0.182966666667     0.752700000000   
O      0.354950000000     0.220133333333     0.702400000000   
O      0.391600000000     0.141600000000     0.685100000000   
O      0.434600000000     0.218466666667     0.685100000000   
O      0.461900000000     0.096066666667     0.674800000000   
O      0.398050000000     0.080100000000     0.628000000000   
O      0.021150000000     0.094533333333     0.620250000000   
O      0.037500000000     0.124766666667     0.692400000000   
O      0.490500000000     0.173200000000     0.643700000000   
O      0.420800000000     0.201800000000     0.609800000000   
O      0.350000000000     0.178966666667     0.576150000000   
O      0.363700000000     0.091533333333     0.558250000000   
Si     0.397350000000     0.190733333333     0.706650000000   
Si     0.002700000000     0.121966666667     0.657950000000   
Si     0.377200000000     0.221300000000     0.592950000000   
Si     0.335800000000     0.136366666667     0.548650000000   
Si     0.411800000000     0.092833333333     0.672650000000   
Si     0.456250000000     0.213766666667     0.642100000000   
O      0.408700000000     0.317033333333     0.502700000000   
O      0.354950000000     0.279866666667     0.952400000000   
O      0.391600000000     0.025066666667     0.935100000000   
O      0.434600000000     0.281533333333     0.935100000000   
O      0.461900000000     0.070600000000     0.924800000000   
O      0.398050000000     0.086566666667     0.878000000000   
O      0.021150000000     0.072133333333     0.870250000000   
O      0.037500000000     0.041900000000     0.942400000000   
O      0.490500000000     0.326800000000     0.893700000000   
O      0.420800000000     0.298200000000     0.859800000000   
O      0.350000000000     0.321033333333     0.826150000000   
O      0.363700000000     0.075133333333     0.808250000000   
Si     0.397350000000     0.309266666667     0.956650000000   
Si     0.002700000000     0.044700000000     0.907950000000   
Si     0.377200000000     0.278700000000     0.842950000000   
Si     0.335800000000     0.030300000000     0.798650000000   
Si     0.411800000000     0.073833333333     0.922650000000   
Si     0.456250000000     0.286233333333     0.892100000000   
O      0.341300000000     0.016300000000     0.752700000000   
O      0.395050000000     0.053466666667     0.702400000000   
O      0.358400000000     0.308266666667     0.685100000000   
O      0.315400000000     0.051800000000     0.685100000000   
O      0.288100000000     0.262733333333     0.674800000000   
O      0.351950000000     0.246766666667     0.628000000000   
O      0.228850000000     0.261200000000     0.620250000000   
O      0.212500000000     0.291433333333     0.692400000000   
O      0.259500000000     0.006533333333     0.643700000000   
O      0.329200000000     0.035133333333     0.609800000000   
O      0.400000000000     0.012300000000     0.576150000000   
O      0.386300000000     0.258200000000     0.558250000000   
Si     0.352650000000     0.024066666667     0.706650000000   
Si     0.247300000000     0.288633333333     0.657950000000   
Si     0.372800000000     0.054633333333     0.592950000000   
Si     0.414200000000     0.303033333333     0.548650000000   
Si     0.338200000000     0.259500000000     0.672650000000   
Si     0.293750000000     0.047100000000     0.642100000000   
O      0.158700000000     0.182966666667     0.997300000000   
O      0.104950000000     0.220133333333     0.547600000000   
O      0.141600000000     0.141600000000     0.564900000000   
O      0.184600000000     0.218466666667     0.564900000000   
O      0.211900000000     0.096066666667     0.575200000000   
O      0.148050000000     0.080100000000     0.622000000000   
O      0.271150000000     0.094533333333     0.629750000000   
O      0.287500000000     0.124766666667     0.557600000000   
O      0.240500000000     0.173200000000     0.606300000000   
O      0.170800000000     0.201800000000     0.640200000000   
O      0.100000000000     0.178966666667     0.673850000000   
O      0.113700000000     0.091533333333     0.691750000000   
Si     0.147350000000     0.190733333333     0.543350000000   
Si     0.252700000000     0.121966666667     0.592050000000   
Si     0.127200000000     0.221300000000     0.657050000000   
Si     0.085800000000     0.136366666667     0.701350000000   
Si     0.161800000000     0.092833333333     0.577350000000   
Si     0.206250000000     0.213766666667     0.607900000000   
O      0.091300000000     0.150366666667     0.747300000000   
O      0.145050000000     0.113200000000     0.797600000000   
O      0.108400000000     0.191733333333     0.814900000000   
O      0.065400000000     0.114866666667     0.814900000000   
O      0.038100000000     0.237266666667     0.825200000000   
O      0.101950000000     0.253233333333     0.872000000000   
O      0.478850000000     0.238800000000     0.879750000000   
O      0.462500000000     0.208566666667     0.807600000000   
O      0.009500000000     0.160133333333     0.856300000000   
O      0.079200000000     0.131533333333     0.890200000000   
O      0.150000000000     0.154366666667     0.923850000000   
O      0.136300000000     0.241800000000     0.941750000000   
Si     0.102650000000     0.142600000000     0.793350000000   
Si     0.497300000000     0.211366666667     0.842050000000   
Si     0.122800000000     0.112033333333     0.907050000000   
Si     0.164200000000     0.196966666667     0.951350000000   
Si     0.088200000000     0.240500000000     0.827350000000   
Si     0.043750000000     0.119566666667     0.857900000000   
O      0.091300000000     0.349633333333     0.497300000000   
O      0.145050000000     0.386800000000     0.047600000000   
O      0.108400000000     0.641600000000     0.064900000000   
O      0.065400000000     0.385133333333     0.064900000000   
O      0.038100000000     0.596066666667     0.075200000000   
O      0.101950000000     0.580100000000     0.122000000000   
O      0.478850000000     0.594533333333     0.129750000000   
O      0.462500000000     0.624766666667     0.057600000000   
O      0.009500000000     0.339866666667     0.106300000000   
O      0.079200000000     0.368466666667     0.140200000000   
O      0.150000000000     0.345633333333     0.173850000000   
O      0.136300000000     0.591533333333     0.191750000000   
Si     0.102650000000     0.357400000000     0.043350000000   
Si     0.497300000000     0.621966666667     0.092050000000   
Si     0.122800000000     0.387966666667     0.157050000000   
Si     0.164200000000     0.636366666667     0.201350000000   
Si     0.088200000000     0.592833333333     0.077350000000   
Si     0.043750000000     0.380433333333     0.107900000000   
O      0.158700000000     0.650366666667     0.247300000000   
O      0.104950000000     0.613200000000     0.297600000000   
O      0.141600000000     0.358400000000     0.314900000000   
O      0.184600000000     0.614866666667     0.314900000000   
O      0.211900000000     0.403933333333     0.325200000000   
O      0.148050000000     0.419900000000     0.372000000000   
O      0.271150000000     0.405466666667     0.379750000000   
O      0.287500000000     0.375233333333     0.307600000000   
O      0.240500000000     0.660133333333     0.356300000000   
O      0.170800000000     0.631533333333     0.390200000000   
O      0.100000000000     0.654366666667     0.423850000000   
O      0.113700000000     0.408466666667     0.441750000000   
Si     0.147350000000     0.642600000000     0.293350000000   
Si     0.252700000000     0.378033333333     0.342050000000   
Si     0.127200000000     0.612033333333     0.407050000000   
Si     0.085800000000     0.363633333333     0.451350000000   
Si     0.161800000000     0.407166666667     0.327350000000   
Si     0.206250000000     0.619566666667     0.357900000000   
O      0.341300000000     0.483700000000     0.002700000000   
O      0.395050000000     0.446533333333     0.452400000000   
O      0.358400000000     0.525066666667     0.435100000000   
O      0.315400000000     0.448200000000     0.435100000000   
O      0.288100000000     0.570600000000     0.424800000000   
O      0.351950000000     0.586566666667     0.378000000000   
O      0.228850000000     0.572133333333     0.370250000000   
O      0.212500000000     0.541900000000     0.442400000000   
O      0.259500000000     0.493466666667     0.393700000000   
O      0.329200000000     0.464866666667     0.359800000000   
O      0.400000000000     0.487700000000     0.326150000000   
O      0.386300000000     0.575133333333     0.308250000000   
Si     0.352650000000     0.475933333333     0.456650000000   
Si     0.247300000000     0.544700000000     0.407950000000   
Si     0.372800000000     0.445366666667     0.342950000000   
Si     0.414200000000     0.530300000000     0.298650000000   
Si     0.338200000000     0.573833333333     0.422650000000   
Si     0.293750000000     0.452900000000     0.392100000000   
O      0.408700000000     0.516300000000     0.252700000000   
O      0.354950000000     0.553466666667     0.202400000000   
O      0.391600000000     0.474933333333     0.185100000000   
O      0.434600000000     0.551800000000     0.185100000000   
O      0.461900000000     0.429400000000     0.174800000000   
O      0.398050000000     0.413433333333     0.128000000000   
O      0.021150000000     0.427866666667     0.120250000000   
O      0.037500000000     0.458100000000     0.192400000000   
O      0.490500000000     0.506533333333     0.143700000000   
O      0.420800000000     0.535133333333     0.109800000000   
O      0.350000000000     0.512300000000     0.076150000000   
O      0.363700000000     0.424866666667     0.058250000000   
Si     0.397350000000     0.524066666667     0.206650000000   
Si     0.002700000000     0.455300000000     0.157950000000   
Si     0.377200000000     0.554633333333     0.092950000000   
Si     0.335800000000     0.469700000000     0.048650000000   
Si     0.411800000000     0.426166666667     0.172650000000   
Si     0.456250000000     0.547100000000     0.142100000000   
O      0.408700000000     0.650366666667     0.002700000000   
O      0.354950000000     0.613200000000     0.452400000000   
O      0.391600000000     0.358400000000     0.435100000000   
O      0.434600000000     0.614866666667     0.435100000000   
O      0.461900000000     0.403933333333     0.424800000000   
O      0.398050000000     0.419900000000     0.378000000000   
O      0.021150000000     0.405466666667     0.370250000000   
O      0.037500000000     0.375233333333     0.442400000000   
O      0.490500000000     0.660133333333     0.393700000000   
O      0.420800000000     0.631533333333     0.359800000000   
O      0.350000000000     0.654366666667     0.326150000000   
O      0.363700000000     0.408466666667     0.308250000000   
Si     0.397350000000     0.642600000000     0.456650000000   
Si     0.002700000000     0.378033333333     0.407950000000   
Si     0.377200000000     0.612033333333     0.342950000000   
Si     0.335800000000     0.363633333333     0.298650000000   
Si     0.411800000000     0.407166666667     0.422650000000   
Si     0.456250000000     0.619566666667     0.392100000000   
O      0.341300000000     0.349633333333     0.252700000000   
O      0.395050000000     0.386800000000     0.202400000000   
O      0.358400000000     0.641600000000     0.185100000000   
O      0.315400000000     0.385133333333     0.185100000000   
O      0.288100000000     0.596066666667     0.174800000000   
O      0.351950000000     0.580100000000     0.128000000000   
O      0.228850000000     0.594533333333     0.120250000000   
O      0.212500000000     0.624766666667     0.192400000000   
O      0.259500000000     0.339866666667     0.143700000000   
O      0.329200000000     0.368466666667     0.109800000000   
O      0.400000000000     0.345633333333     0.076150000000   
O      0.386300000000     0.591533333333     0.058250000000   
Si     0.352650000000     0.357400000000     0.206650000000   
Si     0.247300000000     0.621966666667     0.157950000000   
Si     0.372800000000     0.387966666667     0.092950000000   
Si     0.414200000000     0.636366666667     0.048650000000   
Si     0.338200000000     0.592833333333     0.172650000000   
Si     0.293750000000     0.380433333333     0.142100000000   
O      0.158700000000     0.516300000000     0.497300000000   
O      0.104950000000     0.553466666667     0.047600000000   
O      0.141600000000     0.474933333333     0.064900000000   
O      0.184600000000     0.551800000000     0.064900000000   
O      0.211900000000     0.429400000000     0.075200000000   
O      0.148050000000     0.413433333333     0.122000000000   
O      0.271150000000     0.427866666667     0.129750000000   
O      0.287500000000     0.458100000000     0.057600000000   
O      0.240500000000     0.506533333333     0.106300000000   
O      0.170800000000     0.535133333333     0.140200000000   
O      0.100000000000     0.512300000000     0.173850000000   
O      0.113700000000     0.424866666667     0.191750000000   
Si     0.147350000000     0.524066666667     0.043350000000   
Si     0.252700000000     0.455300000000     0.092050000000   
Si     0.127200000000     0.554633333333     0.157050000000   
Si     0.085800000000     0.469700000000     0.201350000000   
Si     0.161800000000     0.426166666667     0.077350000000   
Si     0.206250000000     0.547100000000     0.107900000000   
O      0.091300000000     0.483700000000     0.247300000000   
O      0.145050000000     0.446533333333     0.297600000000   
O      0.108400000000     0.525066666667     0.314900000000   
O      0.065400000000     0.448200000000     0.314900000000   
O      0.038100000000     0.570600000000     0.325200000000   
O      0.101950000000     0.586566666667     0.372000000000   
O      0.478850000000     0.572133333333     0.379750000000   
O      0.462500000000     0.541900000000     0.307600000000   
O      0.009500000000     0.493466666667     0.356300000000   
O      0.079200000000     0.464866666667     0.390200000000   
O      0.150000000000     0.487700000000     0.423850000000   
O      0.136300000000     0.575133333333     0.441750000000   
Si     0.102650000000     0.475933333333     0.293350000000   
Si     0.497300000000     0.544700000000     0.342050000000   
Si     0.122800000000     0.445366666667     0.407050000000   
Si     0.164200000000     0.530300000000     0.451350000000   
Si     0.088200000000     0.573833333333     0.327350000000   
Si     0.043750000000     0.452900000000     0.357900000000   
O      0.091300000000     0.349633333333     0.997300000000   
O      0.145050000000     0.386800000000     0.547600000000   
O      0.108400000000     0.641600000000     0.564900000000   
O      0.065400000000     0.385133333333     0.564900000000   
O      0.038100000000     0.596066666667     0.575200000000   
O      0.101950000000     0.580100000000     0.622000000000   
O      0.478850000000     0.594533333333     0.629750000000   
O      0.462500000000     0.624766666667     0.557600000000   
O      0.009500000000     0.339866666667     0.606300000000   
O      0.079200000000     0.368466666667     0.640200000000   
O      0.150000000000     0.345633333333     0.673850000000   
O      0.136300000000     0.591533333333     0.691750000000   
Si     0.102650000000     0.357400000000     0.543350000000   
Si     0.497300000000     0.621966666667     0.592050000000   
Si     0.122800000000     0.387966666667     0.657050000000   
Si     0.164200000000     0.636366666667     0.701350000000   
Si     0.088200000000     0.592833333333     0.577350000000   
Si     0.043750000000     0.380433333333     0.607900000000   
O      0.158700000000     0.650366666667     0.747300000000   
O      0.104950000000     0.613200000000     0.797600000000   
O      0.141600000000     0.358400000000     0.814900000000   
O      0.184600000000     0.614866666667     0.814900000000   
O      0.211900000000     0.403933333333     0.825200000000   
O      0.148050000000     0.419900000000     0.872000000000   
O      0.271150000000     0.405466666667     0.879750000000   
O      0.287500000000     0.375233333333     0.807600000000   
O      0.240500000000     0.660133333333     0.856300000000   
O      0.170800000000     0.631533333333     0.890200000000   
O      0.100000000000     0.654366666667     0.923850000000   
O      0.113700000000     0.408466666667     0.941750000000   
Si     0.147350000000     0.642600000000     0.793350000000   
Si     0.252700000000     0.378033333333     0.842050000000   
Si     0.127200000000     0.612033333333     0.907050000000   
Si     0.085800000000     0.363633333333     0.951350000000   
Si     0.161800000000     0.407166666667     0.827350000000   
Si     0.206250000000     0.619566666667     0.857900000000   
O      0.341300000000     0.483700000000     0.502700000000   
O      0.395050000000     0.446533333333     0.952400000000   
O      0.358400000000     0.525066666667     0.935100000000   
O      0.315400000000     0.448200000000     0.935100000000   