%BLOCK LATTICE_CART
ang    # angstrom units
  8.165000000000     0.000000000000     0.000000000000   
  0.000000000000     9.200000000000     0.000000000000   
  0.000000000000     0.000000000000     17.294000000000  
%ENDBLOCK LATTICE_CART

%BLOCK POSITIONS_FRAC
O      0.187500000000     0.063800000000     0.000000000000   
O      0.136700000000     0.327800000000     0.019650000000   
O      0.186975000000     0.030766666667     0.070950000000   
O      0.125000000000     0.083333333333     0.045800000000   
O      0.011950000000     0.003300000000     0.052500000000   
O      0.062500000000     0.301833333333     0.000000000000   
O      0.000000000000     0.250000000000     0.023500000000   
O      0.000000000000     0.250000000000     0.158000000000   
O      0.237450000000     0.000000000000     0.125000000000   
Si     0.158700000000     0.043433333333     0.034150000000   
Si     0.015650000000     0.303966666667     0.014050000000   
Si     0.234000000000     0.304333333333     0.165150000000   
O      0.062500000000     0.102866666667     0.000000000000   
O      0.113300000000     0.172200000000     0.019650000000   
O      0.063025000000     0.135900000000     0.070950000000   
O      0.238050000000     0.163366666667     0.052500000000   
O      0.187500000000     0.198166666667     0.000000000000   
O      0.012550000000     0.166666666667     0.125000000000   
Si     0.091300000000     0.123233333333     0.034150000000   
Si     0.234350000000     0.196033333333     0.014050000000   
Si     0.016000000000     0.195666666667     0.165150000000   
O      0.187500000000     0.269533333333     0.250000000000   
O      0.136700000000     0.005533333333     0.230350000000   
O      0.186975000000     0.302566666667     0.179050000000   
O      0.125000000000     0.250000000000     0.204200000000   
O      0.011950000000     0.330033333333     0.197500000000   
O      0.062500000000     0.031500000000     0.250000000000   
O      0.000000000000     0.083333333333     0.226500000000   
O      0.000000000000     0.083333333333     0.092000000000   
Si     0.158700000000     0.289900000000     0.215850000000   
Si     0.015650000000     0.029366666667     0.235950000000   
Si     0.234000000000     0.029000000000     0.084850000000   
O      0.062500000000     0.230466666667     0.250000000000   
O      0.113300000000     0.161133333333     0.230350000000   
O      0.063025000000     0.197433333333     0.179050000000   
O      0.238050000000     0.169966666667     0.197500000000   
O      0.187500000000     0.135166666667     0.250000000000   
Si     0.091300000000     0.210100000000     0.215850000000   
Si     0.234350000000     0.137300000000     0.235950000000   
Si     0.016000000000     0.137666666667     0.084850000000   
O      0.011700000000     0.161133333333     0.269650000000   
O      0.061975000000     0.197433333333     0.320950000000   
O      0.000000000000     0.250000000000     0.295800000000   
O      0.136950000000     0.169966666667     0.302500000000   
O      0.125000000000     0.083333333333     0.273500000000   
O      0.125000000000     0.083333333333     0.408000000000   
O      0.112450000000     0.166666666667     0.375000000000   
Si     0.033700000000     0.210100000000     0.284150000000   
Si     0.140650000000     0.137300000000     0.264050000000   
Si     0.109000000000     0.137666666667     0.415150000000   
O      0.238300000000     0.005533333333     0.269650000000   
O      0.188025000000     0.302566666667     0.320950000000   
O      0.113050000000     0.330033333333     0.302500000000   
O      0.137550000000     0.000000000000     0.375000000000   
Si     0.216300000000     0.289900000000     0.284150000000   
Si     0.109350000000     0.029366666667     0.264050000000   
Si     0.141000000000     0.029000000000     0.415150000000   
O      0.011700000000     0.172200000000     0.480350000000   
O      0.061975000000     0.135900000000     0.429050000000   
O      0.000000000000     0.083333333333     0.454200000000   
O      0.136950000000     0.163366666667     0.447500000000   
O      0.125000000000     0.250000000000     0.476500000000   
O      0.125000000000     0.250000000000     0.342000000000   
Si     0.033700000000     0.123233333333     0.465850000000   
Si     0.140650000000     0.196033333333     0.485950000000   
Si     0.109000000000     0.195666666667     0.334850000000   
O      0.238300000000     0.327800000000     0.480350000000   
O      0.188025000000     0.030766666667     0.429050000000   
O      0.113050000000     0.003300000000     0.447500000000   
Si     0.216300000000     0.043433333333     0.465850000000   
Si     0.109350000000     0.303966666667     0.485950000000   
Si     0.141000000000     0.304333333333     0.334850000000   
O      0.187500000000     0.063800000000     0.500000000000   
O      0.136700000000     0.327800000000     0.519650000000   
O      0.186975000000     0.030766666667     0.570950000000   
O      0.125000000000     0.083333333333     0.545800000000   
O      0.011950000000     0.003300000000     0.552500000000   
O      0.062500000000     0.301833333333     0.500000000000   
O      0.000000000000     0.250000000000     0.523500000000   
O      0.000000000000     0.250000000000     0.658000000000   
O      0.237450000000     0.000000000000     0.625000000000   
Si     0.158700000000     0.043433333333     0.534150000000   
Si     0.015650000000     0.303966666667     0.514050000000   
Si     0.234000000000     0.304333333333     0.665150000000   
O      0.062500000000     0.102866666667     0.500000000000   
O      0.113300000000     0.172200000000     0.519650000000   
O      0.063025000000     0.135900000000     0.570950000000   
O      0.238050000000     0.163366666667     0.552500000000   
O      0.187500000000     0.198166666667     0.500000000000   
O      0.012550000000     0.166666666667     0.625000000000   
Si     0.091300000000     0.123233333333     0.534150000000   
Si     0.234350000000     0.196033333333     0.514050000000   
Si     0.016000000000     0.195666666667     0.665150000000   
O      0.187500000000     0.269533333333     0.750000000000   
O      0.136700000000     0.005533333333     0.730350000000   
O      0.186975000000     0.302566666667     0.679050000000   
O      0.125000000000     0.250000000000     0.704200000000   
O      0.011950000000     0.330033333333     0.697500000000   
O      0.062500000000     0.031500000000     0.750000000000   
O      0.000000000000     0.083333333333     0.726500000000   
O      0.000000000000     0.083333333333     0.592000000000   
Si     0.158700000000     0.289900000000     0.715850000000   
Si     0.015650000000     0.029366666667     0.735950000000   
Si     0.234000000000     0.029000000000     0.584850000000   
O      0.062500000000     0.230466666667     0.750000000000   
O      0.113300000000     0.161133333333     0.730350000000   
O      0.063025000000     0.197433333333     0.679050000000   
O      0.238050000000     0.169966666667     0.697500000000   
O      0.187500000000     0.135166666667     0.750000000000   
Si     0.091300000000     0.210100000000     0.715850000000   
Si     0.234350000000     0.137300000000     0.735950000000   
Si     0.016000000000     0.137666666667     0.584850000000   
O      0.011700000000     0.161133333333     0.769650000000   
O      0.061975000000     0.197433333333     0.820950000000   
O      0.000000000000     0.250000000000     0.795800000000   
O      0.136950000000     0.169966666667     0.802500000000   
O      0.125000000000     0.083333333333     0.773500000000   
O      0.125000000000     0.083333333333     0.908000000000   
O      0.112450000000     0.166666666667     0.875000000000   
Si     0.033700000000     0.210100000000     0.784150000000   
Si     0.140650000000     0.137300000000     0.764050000000   
Si     0.109000000000     0.137666666667     0.915150000000   
O      0.238300000000     0.005533333333     0.769650000000   
O      0.188025000000     0.302566666667     0.820950000000   
O      0.113050000000     0.330033333333     0.802500000000   
O      0.137550000000     0.000000000000     0.875000000000   
Si     0.216300000000     0.289900000000     0.784150000000   
Si     0.109350000000     0.029366666667     0.764050000000   
Si     0.141000000000     0.029000000000     0.915150000000   
O      0.011700000000     0.172200000000     0.980350000000   
O      0.061975000000     0.135900000000     0.929050000000   
O      0.000000000000     0.083333333333     0.954200000000   
O      0.136950000000     0.163366666667     0.947500000000   
O      0.125000000000     0.250000000000     0.976500000000   
O      0.125000000000     0.250000000000     0.842000000000   
Si     0.033700000000     0.123233333333     0.965850000000   
Si     0.140650000000     0.196033333333     0.985950000000   
Si     0.109000000000     0.195666666667     0.834850000000   
O      0.238300000000     0.327800000000     0.980350000000   
O      0.188025000000     0.030766666667     0.929050000000   
O      0.113050000000     0.003300000000     0.947500000000   
Si     0.216300000000     0.043433333333     0.965850000000   
Si     0.109350000000     0.303966666667     0.985950000000   
Si     0.141000000000     0.304333333333     0.834850000000   
O      0.187500000000     0.397133333333     0.000000000000   
O      0.136700000000     0.661133333333     0.019650000000   
O      0.186975000000     0.364100000000     0.070950000000   
O      0.125000000000     0.416666666667     0.045800000000   
O      0.011950000000     0.336633333333     0.052500000000   
O      0.062500000000     0.635166666667     0.000000000000   
O      0.000000000000     0.583333333333     0.023500000000   
O      0.000000000000     0.583333333333     0.158000000000   
O      0.237450000000     0.333333333333     0.125000000000   
Si     0.158700000000     0.376766666667     0.034150000000   
Si     0.015650000000     0.637300000000     0.014050000000   
Si     0.234000000000     0.637666666667     0.165150000000   
O      0.062500000000     0.436200000000     0.000000000000   
O      0.113300000000     0.505533333333     0.019650000000   
O      0.063025000000     0.469233333333     0.070950000000   
O      0.238050000000     0.496700000000     0.052500000000   
O      0.187500000000     0.531500000000     0.000000000000   
O      0.012550000000     0.500000000000     0.125000000000   
Si     0.091300000000     0.456566666667     0.034150000000   
Si     0.234350000000     0.529366666667     0.014050000000   
Si     0.016000000000     0.529000000000     0.165150000000   
O      0.187500000000     0.602866666667     0.250000000000   
O      0.136700000000     0.338866666667     0.230350000000   
O      0.186975000000     0.635900000000     0.179050000000   
O      0.125000000000     0.583333333333     0.204200000000   
O      0.011950000000     0.663366666667     0.197500000000   
O      0.062500000000     0.364833333333     0.250000000000   
O      0.000000000000     0.416666666667     0.226500000000   
O      0.000000000000     0.416666666667     0.092000000000   
Si     0.158700000000     0.623233333333     0.215850000000   
Si     0.015650000000     0.362700000000     0.235950000000   
Si     0.234000000000     0.362333333333     0.084850000000   
O      0.062500000000     0.563800000000     0.250000000000   
O      0.113300000000     0.494466666667     0.230350000000   
O      0.063025000000     0.530766666667     0.179050000000   
O      0.238050000000     0.503300000000     0.197500000000   
O      0.187500000000     0.468500000000     0.250000000000   
Si     0.091300000000     0.543433333333     0.215850000000   
Si     0.234350000000     0.470633333333     0.235950000000   
Si     0.016000000000     0.471000000000     0.084850000000   
O      0.011700000000     0.494466666667     0.269650000000   
O      0.061975000000     0.530766666667     0.320950000000   
O      0.000000000000     0.583333333333     0.295800000000   
O      0.136950000000     0.503300000000     0.302500000000   
O      0.125000000000     0.416666666667     0.273500000000   
O      0.125000000000     0.416666666667     0.408000000000   
O      0.112450000000     0.500000000000     0.375000000000   
Si     0.033700000000     0.543433333333     0.284150000000   
Si     0.140650000000     0.470633333333     0.264050000000   
Si     0.109000000000     0.471000000000     0.415150000000   
O      0.238300000000     0.338866666667     0.269650000000   
O      0.188025000000     0.635900000000     0.320950000000   
O      0.113050000000     0.663366666667     0.302500000000   
O      0.137550000000     0.333333333333     0.375000000000   
Si     0.216300000000     0.623233333333     0.284150000000   
Si     0.109350000000     0.362700000000     0.264050000000   
Si     0.141000000000     0.362333333333     0.415150000000   
O      0.011700000000     0.505533333333     0.480350000000   
O      0.061975000000     0.469233333333     0.429050000000   
O      0.000000000000     0.416666666667     0.454200000000   
O      0.136950000000     0.496700000000     0.447500000000   
O      0.125000000000     0.583333333333     0.476500000000   
O      0.125000000000     0.583333333333     0.342000000000   
Si     0.033700000000     0.456566666667     0.465850000000   
Si     0.140650000000     0.529366666667     0.485950000000   
Si     0.109000000000     0.529000000000     0.334850000000   
O      0.238300000000     0.661133333333     0.480350000000   
O      0.188025000000     0.364100000000     0.429050000000   
O      0.113050000000     0.336633333333     0.447500000000   
Si     0.216300000000     0.376766666667     0.465850000000   
Si     0.109350000000     0.637300000000     0.485950000000   
Si     0.141000000000     0.637666666667     0.334850000000   
O      0.187500000000     0.397133333333     0.500000000000   
O      0.136700000000     0.661133333333     0.519650000000   
O      0.186975000000     0.364100000000     0.570950000000   
O      0.125000000000     0.416666666667     0.545800000000   
O      0.011950000000     0.336633333333     0.552500000000   
O      0.062500000000     0.635166666667     0.500000000000   
O      0.000000000000     0.583333333333     0.523500000000   
O      0.000000000000     0.583333333333     0.658000000000   
O      0.237450000000     0.333333333333     0.625000000000   
Si     0.158700000000     0.376766666667     0.534150000000   
Si     0.015650000000     0.637300000000     0.514050000000   
Si     0.234000000000     0.637666666667     0.665150000000   
O      0.062500000000     0.436200000000     0.500000000000   
O      0.113300000000     0.505533333333     0.519650000000   
O      0.063025000000     0.469233333333     0.570950000000   
O      0.238050000000     0.496700000000     0.552500000000   
O      0.187500000000     0.531500000000     0.500000000000   
O      0.012550000000     0.500000000000     0.625000000000   
Si     0.091300000000     0.456566666667     0.534150000000   
Si     0.234350000000     0.529366666667     0.514050000000   
Si     0.016000000000     0.529000000000     0.665150000000   
O      0.187500000000     0.602866666667     0.750000000000   
O      0.136700000000     0.338866666667     0.730350000000   
O      0.186975000000     0.635900000000     0.679050000000   
O      0.125000000000     0.583333333333     0.704200000000   
O      0.011950000000     0.663366666667     0.697500000000   
O      0.062500000000     0.364833333333     0.750000000000   
O      0.000000000000     0.416666666667     0.726500000000   
O      0.000000000000     0.416666666667     0.592000000000   
Si     0.158700000000     0.623233333333     0.715850000000   
Si     0.015650000000     0.362700000000     0.735950000000   
Si     0.234000000000     0.362333333333     0.584850000000   
O      0.062500000000     0.563800000000     0.750000000000   
O      0.113300000000     0.494466666667     0.730350000000   
O      0.063025000000     0.530766666667     0.679050000000   
O      0.238050000000     0.503300000000     0.697500000000   
O      0.187500000000     0.468500000000     0.750000000000   
Si     0.091300000000     0.543433333333     0.715850000000   
Si     0.234350000000     0.470633333333     0.735950000000   
Si     0.016000000000     0.471000000000     0.584850000000   
O      0.011700000000     0.494466666667     0.769650000000   
O      0.061975000000     0.530766666667     0.820950000000   
O      0.000000000000     0.583333333333     0.795800000000   
O      0.136950000000     0.503300000000     0.802500000000   
O      0.125000000000     0.416666666667     0.773500000000   
O      0.125000000000     0.416666666667     0.908000000000   
O      0.112450000000     0.500000000000     0.875000000000   
Si     0.033700000000     0.543433333333     0.784150000000   
Si     0.140650000000     0.470633333333     0.764050000000   
Si     0.109000000000     0.471000000000     0.915150000000   
O      0.238300000000     0.338866666667     0.769650000000   
O      0.188025000000     0.635900000000     0.820950000000   
O      0.113050000000     0.663366666667     0.802500000000   
O      0.137550000000     0.333333333333     0.875000000000   
Si     0.216300000000     0.623233333333     0.784150000000   
Si     0.109350000000     0.362700000000     0.764050000000   
Si     0.141000000000     0.362333333333     0.915150000000   
O      0.011700000000     0.505533333333     0.980350000000   
O      0.061975000000     0.469233333333     0.929050000000   
O      0.000000000000     0.416666666667     0.954200000000   
O      0.136950000000     0.496700000000     0.947500000000   
O      0.125000000000     0.583333333333     0.976500000000   
O      0.125000000000     0.583333333333     0.842000000000   
Si     0.033700000000     0.456566666667     0.965850000000   
Si     0.140650000000     0.529366666667     0.985950000000   
Si     0.109000000000     0.529000000000     0.834850000000   
O      0.238300000000     0.661133333333     0.980350000000   
O      0.188025000000     0.364100000000     0.929050000000   
O      0.113050000000     0.336633333333     0.947500000000   
Si     0.216300000000     0.376766666667     0.965850000000   
Si     0.109350000000     0.637300000000     0.985950000000   
Si     0.141000000000     0.637666666667     0.834850000000   
O      0.187500000000     0.730466666667     0.000000000000   
O      0.136700000000     0.994466666667     0.019650000000   
O      0.186975000000     0.697433333333     0.070950000000   
O      0.125000000000     0.750000000000     0.045800000000   
O      0.011950000000     0.669966666667     0.052500000000   
O      0.062500000000     0.968500000000     0.000000000000   
O      0.000000000000     0.916666666667     0.023500000000   
O      0.000000000000     0.916666666667     0.158000000000   
O      0.237450000000     0.666666666667     0.125000000000   
Si     0.158700000000     0.710100000000     0.034150000000   
Si     0.015650000000     0.970633333333     0.014050000000   
Si     0.234000000000     0.971000000000     0.165150000000   
O      0.062500000000     0.769533333333     0.000000000000   
O      0.113300000000     0.838866666667     0.019650000000   
O      0.063025000000     0.802566666667     0.070950000000   
O      0.238050000000     0.830033333333     0.052500000000   
O      0.187500000000     0.864833333333     0.000000000000   
O      0.012550000000     0.833333333333     0.125000000000   
Si     0.091300000000     0.789900000000     0.034150000000   
Si     0.234350000000     0.862700000000     0.014050000000   
Si     0.016000000000     0.862333333333     0.165150000000   
O      0.187500000000     0.936200000000     0.250000000000   
O      0.136700000000     0.672200000000     0.230350000000   
O      0.186975000000     0.969233333333     0.179050000000   
O      0.125000000000     0.916666666667     0.204200000000   
O      0.011950000000     0.996700000000     0.197500000000   
O      0.062500000000     0.698166666667     0.250000000000   
O      0.000000000000     0.750000000000     0.226500000000   
O      0.000000000000     0.750000000000     0.092000000000   
Si     0.158700000000     0.956566666667     0.215850000000   
Si     0.015650000000     0.696033333333     0.235950000000   
Si     0.234000000000     0.695666666667     0.084850000000   
O      0.062500000000     0.897133333333     0.250000000000   
O      0.113300000000     0.827800000000     0.230350000000   
O      0.063025000000     0.864100000000     0.179050000000   
O      0.238050000000     0.836633333333     0.197500000000   
O      0.187500000000     0.801833333333     0.250000000000   
Si     0.091300000000     0.876766666667     0.215850000000   
Si     0.234350000000     0.803966666667     0.235950000000   
Si     0.016000000000     0.804333333333     0.084850000000   
O      0.011700000000     0.827800000000     0.269650000000   
O      0.061975000000     0.864100000000     0.320950000000   
O      0.000000000000     0.916666666667     0.295800000000   
O      0.136950000000     0.836633333333     0.302500000000   
O      0.125000000000     0.750000000000     0.273500000000   
O      0.125000000000     0.750000000000     0.408000000000   
O      0.112450000000     0.833333333333     0.375000000000   
Si     0.033700000000     0.876766666667     0.284150000000   
Si     0.140650000000     0.803966666667     0.264050000000   
Si     0.109000000000     0.804333333333     0.415150000000   
O      0.238300000000     0.672200000000     0.269650000000   
O      0.188025000000     0.969233333333     0.320950000000   
O      0.113050000000     0.996700000000     0.302500000000   
O      0.137550000000     0.666666666667     0.375000000000   
Si     0.216300000000     0.956566666667     0.284150000000   
Si     0.109350000000     0.696033333333     0.264050000000   
Si     0.141000000000     0.695666666667     0.415150000000   
O      0.011700000000     0.838866666667     0.480350000000   
O      0.061975000000     0.802566666667     0.429050000000   
O      0.000000000000     0.750000000000     0.454200000000   
O      0.136950000000     0.830033333333     0.447500000000   
O      0.125000000000     0.916666666667     0.476500000000   
O      0.125000000000     0.916666666667     0.342000000000   
Si     0.033700000000     0.789900000000     0.465850000000   
Si     0.140650000000     0.862700000000     0.485950000000   
Si     0.109000000000     0.862333333333     0.334850000000   
O      0.238300000000     0.994466666667     0.480350000000   
O      0.188025000000     0.697433333333     0.429050000000   
O      0.113050000000     0.669966666667     0.447500000000   
Si     0.216300000000     0.710100000000     0.465850000000   
Si     0.109350000000     0.970633333333     0.485950000000   
Si     0.141000000000     0.971000000000     0.334850000000   
O      0.187500000000     0.730466666667     0.500000000000   
O      0.136700000000     0.994466666667     0.519650000000   
O      0.186975000000     0.697433333333     0.570950000000   
O      0.125000000000     0.750000000000     0.545800000000   
O      0.011950000000     0.669966666667     0.552500000000   
O      0.062500000000     0.968500000000     0.500000000000   
O      0.000000000000     0.916666666667     0.523500000000   
O      0.000000000000     0.916666666667     0.658000000000   
O      0.237450000000     0.666666666667     0.625000000000   
Si     0.158700000000     0.710100000000     0.534150000000   
Si     0.015650000000     0.970633333333     0.514050000000   
Si     0.234000000000     0.971000000000     0.665150000000   
O      0.062500000000     0.769533333333     0.500000000000   
O      0.113300000000     0.838866666667     0.519650000000   
O      0.063025000000     0.802566666667     0.570950000000   
O      0.238050000000     0.830033333333     0.552500000000   
O      0.187500000000     0.864833333333     0.500000000000   
O      0.012550000000     0.833333333333     0.625000000000   
Si     0.091300000000     0.789900000000     0.534150000000   
Si     0.234350000000     0.862700000000     0.514050000000   
Si     0.016000000000     0.862333333333     0.665150000000   
O      0.187500000000     0.936200000000     0.750000000000   
O      0.136700000000     0.672200000000     0.730350000000   
O      0.186975000000     0.969233333333     0.679050000000   
O      0.125000000000     0.916666666667     0.704200000000   
O      0.011950000000     0.996700000000     0.697500000000   
O      0.062500000000     0.698166666667     0.750000000000   
O      0.000000000000     0.750000000000     0.726500000000   
O      0.000000000000     0.750000000000     0.592000000000   
Si     0.158700000000     0.956566666667     0.715850000000   
Si     0.015650000000     0.696033333333     0.735950000000   
Si     0.234000000000     0.695666666667     0.584850000000   
O      0.062500000000     0.897133333333     0.750000000000   
O      0.113300000000     0.827800000000     0.730350000000   
O      0.063025000000     0.864100000000     0.679050000000   
O      0.238050000000     0.836633333333     0.697500000000   
O      0.187500000000     0.801833333333     0.750000000000   
Si     0.091300000000     0.876766666667     0.715850000000   
Si     0.234350000000     0.803966666667     0.735950000000   
Si     0.016000000000     0.804333333333     0.584850000000   
O      0.011700000000     0.827800000000     0.769650000000   
O      0.061975000000     0.864100000000     0.820950000000   
O      0.000000000000     0.916666666667     0.795800000000   
O      0.136950000000     0.836633333333     0.802500000000   
O      0.125000000000     0.750000000000     0.773500000000   
O      0.125000000000     0.750000000000     0.908000000000   
O      0.112450000000     0.833333333333     0.875000000000   
Si     0.033700000000     0.876766666667     0.784150000000   
Si     0.140650000000     0.803966666667     0.764050000000   
Si     0.109000000000     0.804333333333     0.915150000000   
O      0.238300000000     0.672200000000     0.769650000000   
O      0.188025000000     0.969233333333     0.820950000000   
O      0.113050000000     0.996700000000     0.802500000000   
O      0.137550000000     0.666666666667     0.875000000000   
Si     0.216300000000     0.956566666667     0.784150000000   
Si     0.109350000000     0.696033333333     0.764050000000   
Si     0.141000000000     0.695666666667     0.915150000000   
O      0.011700000000     0.838866666667     0.980350000000   
O      0.061975000000     0.802566666667     0.929050000000   
O      0.000000000000     0.750000000000     0.954200000000   
O      0.136950000000     0.830033333333     0.947500000000   
O      0.125000000000     0.916666666667     0.976500000000   
O      0.125000000000     0.916666666667     0.842000000000   
Si     0.033700000000     0.789900000000     0.965850000000   
Si     0.140650000000     0.862700000000     0.985950000000   
Si     0.109000000000     0.862333333333     0.834850000000   
O      0.238300000000     0.994466666667     0.980350000000   
O      0.188025000000     0.697433333333     0.929050000000   
O      0.113050000000     0.669966666667     0.947500000000   
Si     0.216300000000     0.710100000000     0.965850000000   
Si     0.109350000000     0.970633333333     0.985950000000   
Si     0.141000000000     0.971000000000     0.834850000000   
O      0.437500000000     0.063800000000     0.000000000000   
O      0.386700000000     0.327800000000     0.019650000000   
O      0.436975000000     0.030766666667     0.070950000000   
O      0.375000000000     0.083333333333     0.045800000000   
O      0.261950000000     0.003300000000     0.052500000000   
O      0.312500000000     0.301833333333     0.000000000000   
O      0.250000000000     0.250000000000     0.023500000000   
O      0.250000000000     0.250000000000     0.158000000000   
O      0.487450000000     0.000000000000     0.125000000000   
Si     0.408700000000     0.043433333333     0.034150000000   
Si     0.265650000000     0.303966666667     0.014050000000   
Si     0.484000000000     0.304333333333     0.165150000000   
O      0.312500000000     0.102866666667     0.000000000000   
O      0.363300000000     0.172200000000     0.019650000000   
O      0.313025000000     0.135900000000     0.070950000000   
O      0.488050000000     0.163366666667     0.052500000000   
O      0.437500000000     0.198166666667     0.000000000000   
O      0.262550000000     0.166666666667     0.125000000000   
Si     0.341300000000     0.123233333333     0.034150000000   
Si     0.484350000000     0.196033333333     0.014050000000   
Si     0.266000000000     0.195666666667     0.165150000000   
O      0.437500000000     0.269533333333     0.250000000000   
O      0.386700000000     0.005533333333     0.230350000000   
O      0.436975000000     0.302566666667     0.179050000000   
O      0.375000000000     0.250000000000     0.204200000000   
O      0.261950000000     0.330033333333     0.197500000000   
O      0.312500000000     0.031500000000     0.250000000000   
O      0.250000000000     0.083333333333     0.226500000000   
O      0.250000000000     0.083333333333     0.092000000000   
Si     0.408700000000     0.289900000000     0.215850000000   
Si     0.265650000000     0.029366666667     0.235950000000   
Si     0.484000000000     0.029000000000     0.084850000000   
O      0.312500000000     0.230466666667     0.250000000000   
O      0.363300000000     0.161133333333     0.230350000000   
O      0.313025000000     0.197433333333     0.179050000000   
O      0.488050000000     0.169966666667     0.197500000000   
O      0.437500000000     0.135166666667     0.250000000000   
Si     0.341300000000     0.210100000000     0.215850000000   
Si     0.484350000000     0.137300000000     0.235950000000   
Si     0.266000000000     0.137666666667     0.084850000000   