%BLOCK LATTICE_CART
ang    # angstrom units
  14.587000000000    0.000000000000     0.000000000000   
  0.000000000000     12.877000000000    0.000000000000   
 -2.747968081963     0.000000000000     7.099749320963   
%ENDBLOCK LATTICE_CART

%BLOCK POSITIONS_FRAC
O      0.175700000000     0.172300000000     0.069600000000   
O      0.118000000000     0.250000000000     0.071425000000   
O      0.084900000000     0.154100000000     0.063425000000   
O      0.150550000000     0.186150000000     0.143400000000   
O      0.181550000000     0.182300000000     0.235825000000   
O      0.240450000000     0.154850000000     0.191850000000   
O      0.225350000000     0.250000000000     0.052475000000   
Si     0.132300000000     0.190650000000     0.086950000000   
Si     0.184400000000     0.154800000000     0.189400000000   
Si     0.210500000000     0.189900000000     0.041500000000   
O      0.324300000000     0.172300000000     0.180400000000   
O      0.382000000000     0.250000000000     0.178575000000   
O      0.415100000000     0.154100000000     0.186575000000   
O      0.349450000000     0.186150000000     0.106600000000   
O      0.318450000000     0.182300000000     0.014175000000   
O      0.259550000000     0.154850000000     0.058150000000   
O      0.274650000000     0.250000000000     0.197525000000   
Si     0.367700000000     0.190650000000     0.163050000000   
Si     0.315600000000     0.154800000000     0.060600000000   
Si     0.289500000000     0.189900000000     0.208500000000   
O      0.324300000000     0.327700000000     0.180400000000   
O      0.415100000000     0.345900000000     0.186575000000   
O      0.349450000000     0.313850000000     0.106600000000   
O      0.318450000000     0.317700000000     0.014175000000   
O      0.259550000000     0.345150000000     0.058150000000   
Si     0.367700000000     0.309350000000     0.163050000000   
Si     0.315600000000     0.345200000000     0.060600000000   
Si     0.289500000000     0.310100000000     0.208500000000   
O      0.175700000000     0.327700000000     0.069600000000   
O      0.084900000000     0.345900000000     0.063425000000   
O      0.150550000000     0.313850000000     0.143400000000   
O      0.181550000000     0.317700000000     0.235825000000   
O      0.240450000000     0.345150000000     0.191850000000   
Si     0.132300000000     0.309350000000     0.086950000000   
Si     0.184400000000     0.345200000000     0.189400000000   
Si     0.210500000000     0.310100000000     0.041500000000   
O      0.425700000000     0.422300000000     0.069600000000   
O      0.368000000000     0.000000000000     0.071425000000   
O      0.334900000000     0.404100000000     0.063425000000   
O      0.400550000000     0.436150000000     0.143400000000   
O      0.431550000000     0.432300000000     0.235825000000   
O      0.490450000000     0.404850000000     0.191850000000   
O      0.475350000000     0.000000000000     0.052475000000   
Si     0.382300000000     0.440650000000     0.086950000000   
Si     0.434400000000     0.404800000000     0.189400000000   
Si     0.460500000000     0.439900000000     0.041500000000   
O      0.074300000000     0.422300000000     0.180400000000   
O      0.132000000000     0.000000000000     0.178575000000   
O      0.165100000000     0.404100000000     0.186575000000   
O      0.099450000000     0.436150000000     0.106600000000   
O      0.068450000000     0.432300000000     0.014175000000   
O      0.009550000000     0.404850000000     0.058150000000   
O      0.024650000000     0.000000000000     0.197525000000   
Si     0.117700000000     0.440650000000     0.163050000000   
Si     0.065600000000     0.404800000000     0.060600000000   
Si     0.039500000000     0.439900000000     0.208500000000   
O      0.074300000000     0.077700000000     0.180400000000   
O      0.165100000000     0.095900000000     0.186575000000   
O      0.099450000000     0.063850000000     0.106600000000   
O      0.068450000000     0.067700000000     0.014175000000   
O      0.009550000000     0.095150000000     0.058150000000   
Si     0.117700000000     0.059350000000     0.163050000000   
Si     0.065600000000     0.095200000000     0.060600000000   
Si     0.039500000000     0.060100000000     0.208500000000   
O      0.425700000000     0.077700000000     0.069600000000   
O      0.334900000000     0.095900000000     0.063425000000   
O      0.400550000000     0.063850000000     0.143400000000   
O      0.431550000000     0.067700000000     0.235825000000   
O      0.490450000000     0.095150000000     0.191850000000   
Si     0.382300000000     0.059350000000     0.086950000000   
Si     0.434400000000     0.095200000000     0.189400000000   
Si     0.460500000000     0.060100000000     0.041500000000   
O      0.175700000000     0.172300000000     0.319600000000   
O      0.118000000000     0.250000000000     0.321425000000   
O      0.084900000000     0.154100000000     0.313425000000   
O      0.150550000000     0.186150000000     0.393400000000   
O      0.181550000000     0.182300000000     0.485825000000   
O      0.240450000000     0.154850000000     0.441850000000   
O      0.225350000000     0.250000000000     0.302475000000   
Si     0.132300000000     0.190650000000     0.336950000000   
Si     0.184400000000     0.154800000000     0.439400000000   
Si     0.210500000000     0.189900000000     0.291500000000   
O      0.324300000000     0.172300000000     0.430400000000   
O      0.382000000000     0.250000000000     0.428575000000   
O      0.415100000000     0.154100000000     0.436575000000   
O      0.349450000000     0.186150000000     0.356600000000   
O      0.318450000000     0.182300000000     0.264175000000   
O      0.259550000000     0.154850000000     0.308150000000   
O      0.274650000000     0.250000000000     0.447525000000   
Si     0.367700000000     0.190650000000     0.413050000000   
Si     0.315600000000     0.154800000000     0.310600000000   
Si     0.289500000000     0.189900000000     0.458500000000   
O      0.324300000000     0.327700000000     0.430400000000   
O      0.415100000000     0.345900000000     0.436575000000   
O      0.349450000000     0.313850000000     0.356600000000   
O      0.318450000000     0.317700000000     0.264175000000   
O      0.259550000000     0.345150000000     0.308150000000   
Si     0.367700000000     0.309350000000     0.413050000000   
Si     0.315600000000     0.345200000000     0.310600000000   
Si     0.289500000000     0.310100000000     0.458500000000   
O      0.175700000000     0.327700000000     0.319600000000   
O      0.084900000000     0.345900000000     0.313425000000   
O      0.150550000000     0.313850000000     0.393400000000   
O      0.181550000000     0.317700000000     0.485825000000   
O      0.240450000000     0.345150000000     0.441850000000   
Si     0.132300000000     0.309350000000     0.336950000000   
Si     0.184400000000     0.345200000000     0.439400000000   
Si     0.210500000000     0.310100000000     0.291500000000   
O      0.425700000000     0.422300000000     0.319600000000   
O      0.368000000000     0.000000000000     0.321425000000   
O      0.334900000000     0.404100000000     0.313425000000   
O      0.400550000000     0.436150000000     0.393400000000   
O      0.431550000000     0.432300000000     0.485825000000   
O      0.490450000000     0.404850000000     0.441850000000   
O      0.475350000000     0.000000000000     0.302475000000   
Si     0.382300000000     0.440650000000     0.336950000000   
Si     0.434400000000     0.404800000000     0.439400000000   
Si     0.460500000000     0.439900000000     0.291500000000   
O      0.074300000000     0.422300000000     0.430400000000   
O      0.132000000000     0.000000000000     0.428575000000   
O      0.165100000000     0.404100000000     0.436575000000   
O      0.099450000000     0.436150000000     0.356600000000   
O      0.068450000000     0.432300000000     0.264175000000   
O      0.009550000000     0.404850000000     0.308150000000   
O      0.024650000000     0.000000000000     0.447525000000   
Si     0.117700000000     0.440650000000     0.413050000000   
Si     0.065600000000     0.404800000000     0.310600000000   
Si     0.039500000000     0.439900000000     0.458500000000   
O      0.074300000000     0.077700000000     0.430400000000   
O      0.165100000000     0.095900000000     0.436575000000   
O      0.099450000000     0.063850000000     0.356600000000   
O      0.068450000000     0.067700000000     0.264175000000   
O      0.009550000000     0.095150000000     0.308150000000   
Si     0.117700000000     0.059350000000     0.413050000000   
Si     0.065600000000     0.095200000000     0.310600000000   
Si     0.039500000000     0.060100000000     0.458500000000   
O      0.425700000000     0.077700000000     0.319600000000   
O      0.334900000000     0.095900000000     0.313425000000   
O      0.400550000000     0.063850000000     0.393400000000   
O      0.431550000000     0.067700000000     0.485825000000   
O      0.490450000000     0.095150000000     0.441850000000   
Si     0.382300000000     0.059350000000     0.336950000000   
Si     0.434400000000     0.095200000000     0.439400000000   
Si     0.460500000000     0.060100000000     0.291500000000   
O      0.175700000000     0.172300000000     0.569600000000   
O      0.118000000000     0.250000000000     0.571425000000   
O      0.084900000000     0.154100000000     0.563425000000   
O      0.150550000000     0.186150000000     0.643400000000   
O      0.181550000000     0.182300000000     0.735825000000   
O      0.240450000000     0.154850000000     0.691850000000   
O      0.225350000000     0.250000000000     0.552475000000   
Si     0.132300000000     0.190650000000     0.586950000000   
Si     0.184400000000     0.154800000000     0.689400000000   
Si     0.210500000000     0.189900000000     0.541500000000   
O      0.324300000000     0.172300000000     0.680400000000   
O      0.382000000000     0.250000000000     0.678575000000   
O      0.415100000000     0.154100000000     0.686575000000   
O      0.349450000000     0.186150000000     0.606600000000   
O      0.318450000000     0.182300000000     0.514175000000   
O      0.259550000000     0.154850000000     0.558150000000   
O      0.274650000000     0.250000000000     0.697525000000   
Si     0.367700000000     0.190650000000     0.663050000000   
Si     0.315600000000     0.154800000000     0.560600000000   
Si     0.289500000000     0.189900000000     0.708500000000   
O      0.324300000000     0.327700000000     0.680400000000   
O      0.415100000000     0.345900000000     0.686575000000   
O      0.349450000000     0.313850000000     0.606600000000   
O      0.318450000000     0.317700000000     0.514175000000   
O      0.259550000000     0.345150000000     0.558150000000   
Si     0.367700000000     0.309350000000     0.663050000000   
Si     0.315600000000     0.345200000000     0.560600000000   
Si     0.289500000000     0.310100000000     0.708500000000   
O      0.175700000000     0.327700000000     0.569600000000   
O      0.084900000000     0.345900000000     0.563425000000   
O      0.150550000000     0.313850000000     0.643400000000   
O      0.181550000000     0.317700000000     0.735825000000   
O      0.240450000000     0.345150000000     0.691850000000   
Si     0.132300000000     0.309350000000     0.586950000000   
Si     0.184400000000     0.345200000000     0.689400000000   
Si     0.210500000000     0.310100000000     0.541500000000   
O      0.425700000000     0.422300000000     0.569600000000   
O      0.368000000000     0.000000000000     0.571425000000   
O      0.334900000000     0.404100000000     0.563425000000   
O      0.400550000000     0.436150000000     0.643400000000   
O      0.431550000000     0.432300000000     0.735825000000   
O      0.490450000000     0.404850000000     0.691850000000   
O      0.475350000000     0.000000000000     0.552475000000   
Si     0.382300000000     0.440650000000     0.586950000000   
Si     0.434400000000     0.404800000000     0.689400000000   
Si     0.460500000000     0.439900000000     0.541500000000   
O      0.074300000000     0.422300000000     0.680400000000   
O      0.132000000000     0.000000000000     0.678575000000   
O      0.165100000000     0.404100000000     0.686575000000   
O      0.099450000000     0.436150000000     0.606600000000   
O      0.068450000000     0.432300000000     0.514175000000   
O      0.009550000000     0.404850000000     0.558150000000   
O      0.024650000000     0.000000000000     0.697525000000   
Si     0.117700000000     0.440650000000     0.663050000000   
Si     0.065600000000     0.404800000000     0.560600000000   
Si     0.039500000000     0.439900000000     0.708500000000   
O      0.074300000000     0.077700000000     0.680400000000   
O      0.165100000000     0.095900000000     0.686575000000   
O      0.099450000000     0.063850000000     0.606600000000   
O      0.068450000000     0.067700000000     0.514175000000   
O      0.009550000000     0.095150000000     0.558150000000   
Si     0.117700000000     0.059350000000     0.663050000000   
Si     0.065600000000     0.095200000000     0.560600000000   
Si     0.039500000000     0.060100000000     0.708500000000   
O      0.425700000000     0.077700000000     0.569600000000   
O      0.334900000000     0.095900000000     0.563425000000   
O      0.400550000000     0.063850000000     0.643400000000   
O      0.431550000000     0.067700000000     0.735825000000   
O      0.490450000000     0.095150000000     0.691850000000   
Si     0.382300000000     0.059350000000     0.586950000000   
Si     0.434400000000     0.095200000000     0.689400000000   
Si     0.460500000000     0.060100000000     0.541500000000   
O      0.175700000000     0.172300000000     0.819600000000   
O      0.118000000000     0.250000000000     0.821425000000   
O      0.084900000000     0.154100000000     0.813425000000   
O      0.150550000000     0.186150000000     0.893400000000   
O      0.181550000000     0.182300000000     0.985825000000   
O      0.240450000000     0.154850000000     0.941850000000   
O      0.225350000000     0.250000000000     0.802475000000   
Si     0.132300000000     0.190650000000     0.836950000000   
Si     0.184400000000     0.154800000000     0.939400000000   
Si     0.210500000000     0.189900000000     0.791500000000   
O      0.324300000000     0.172300000000     0.930400000000   
O      0.382000000000     0.250000000000     0.928575000000   
O      0.415100000000     0.154100000000     0.936575000000   
O      0.349450000000     0.186150000000     0.856600000000   
O      0.318450000000     0.182300000000     0.764175000000   
O      0.259550000000     0.154850000000     0.808150000000   
O      0.274650000000     0.250000000000     0.947525000000   
Si     0.367700000000     0.190650000000     0.913050000000   
Si     0.315600000000     0.154800000000     0.810600000000   
Si     0.289500000000     0.189900000000     0.958500000000   
O      0.324300000000     0.327700000000     0.930400000000   
O      0.415100000000     0.345900000000     0.936575000000   
O      0.349450000000     0.313850000000     0.856600000000   
O      0.318450000000     0.317700000000     0.764175000000   
O      0.259550000000     0.345150000000     0.808150000000   
Si     0.367700000000     0.309350000000     0.913050000000   
Si     0.315600000000     0.345200000000     0.810600000000   
Si     0.289500000000     0.310100000000     0.958500000000   
O      0.175700000000     0.327700000000     0.819600000000   
O      0.084900000000     0.345900000000     0.813425000000   
O      0.150550000000     0.313850000000     0.893400000000   
O      0.181550000000     0.317700000000     0.985825000000   
O      0.240450000000     0.345150000000     0.941850000000   
Si     0.132300000000     0.309350000000     0.836950000000   
Si     0.184400000000     0.345200000000     0.939400000000   
Si     0.210500000000     0.310100000000     0.791500000000   
O      0.425700000000     0.422300000000     0.819600000000   
O      0.368000000000     0.000000000000     0.821425000000   
O      0.334900000000     0.404100000000     0.813425000000   
O      0.400550000000     0.436150000000     0.893400000000   
O      0.431550000000     0.432300000000     0.985825000000   
O      0.490450000000     0.404850000000     0.941850000000   
O      0.475350000000     0.000000000000     0.802475000000   
Si     0.382300000000     0.440650000000     0.836950000000   
Si     0.434400000000     0.404800000000     0.939400000000   
Si     0.460500000000     0.439900000000     0.791500000000   
O      0.074300000000     0.422300000000     0.930400000000   
O      0.132000000000     0.000000000000     0.928575000000   
O      0.165100000000     0.404100000000     0.936575000000   
O      0.099450000000     0.436150000000     0.856600000000   
O      0.068450000000     0.432300000000     0.764175000000   
O      0.009550000000     0.404850000000     0.808150000000   
O      0.024650000000     0.000000000000     0.947525000000   
Si     0.117700000000     0.440650000000     0.913050000000   
Si     0.065600000000     0.404800000000     0.810600000000   
Si     0.039500000000     0.439900000000     0.958500000000   
O      0.074300000000     0.077700000000     0.930400000000   
O      0.165100000000     0.095900000000     0.936575000000   
O      0.099450000000     0.063850000000     0.856600000000   
O      0.068450000000     0.067700000000     0.764175000000   
O      0.009550000000     0.095150000000     0.808150000000   
Si     0.117700000000     0.059350000000     0.913050000000   
Si     0.065600000000     0.095200000000     0.810600000000   
Si     0.039500000000     0.060100000000     0.958500000000   
O      0.425700000000     0.077700000000     0.819600000000   
O      0.334900000000     0.095900000000     0.813425000000   
O      0.400550000000     0.063850000000     0.893400000000   
O      0.431550000000     0.067700000000     0.985825000000   
O      0.490450000000     0.095150000000     0.941850000000   
Si     0.382300000000     0.059350000000     0.836950000000   
Si     0.434400000000     0.095200000000     0.939400000000   
Si     0.460500000000     0.060100000000     0.791500000000   
O      0.175700000000     0.672300000000     0.069600000000   
O      0.118000000000     0.750000000000     0.071425000000   
O      0.084900000000     0.654100000000     0.063425000000   
O      0.150550000000     0.686150000000     0.143400000000   
O      0.181550000000     0.682300000000     0.235825000000   
O      0.240450000000     0.654850000000     0.191850000000   
O      0.225350000000     0.750000000000     0.052475000000   
Si     0.132300000000     0.690650000000     0.086950000000   
Si     0.184400000000     0.654800000000     0.189400000000   
Si     0.210500000000     0.689900000000     0.041500000000   
O      0.324300000000     0.672300000000     0.180400000000   
O      0.382000000000     0.750000000000     0.178575000000   
O      0.415100000000     0.654100000000     0.186575000000   
O      0.349450000000     0.686150000000     0.106600000000   
O      0.318450000000     0.682300000000     0.014175000000   
O      0.259550000000     0.654850000000     0.058150000000   
O      0.274650000000     0.750000000000     0.197525000000   
Si     0.367700000000     0.690650000000     0.163050000000   
Si     0.315600000000     0.654800000000     0.060600000000   
Si     0.289500000000     0.689900000000     0.208500000000   
O      0.324300000000     0.827700000000     0.180400000000   
O      0.415100000000     0.845900000000     0.186575000000   
O      0.349450000000     0.813850000000     0.106600000000   
O      0.318450000000     0.817700000000     0.014175000000   
O      0.259550000000     0.845150000000     0.058150000000   
Si     0.367700000000     0.809350000000     0.163050000000   
Si     0.315600000000     0.845200000000     0.060600000000   
Si     0.289500000000     0.810100000000     0.208500000000   
O      0.175700000000     0.827700000000     0.069600000000   
O      0.084900000000     0.845900000000     0.063425000000   
O      0.150550000000     0.813850000000     0.143400000000   
O      0.181550000000     0.817700000000     0.235825000000   
O      0.240450000000     0.845150000000     0.191850000000   
Si     0.132300000000     0.809350000000     0.086950000000   
Si     0.184400000000     0.845200000000     0.189400000000   
Si     0.210500000000     0.810100000000     0.041500000000   
O      0.425700000000     0.922300000000     0.069600000000   
O      0.368000000000     0.500000000000     0.071425000000   
O      0.334900000000     0.904100000000     0.063425000000   
O      0.400550000000     0.936150000000     0.143400000000   
O      0.431550000000     0.932300000000     0.235825000000   
O      0.490450000000     0.904850000000     0.191850000000   
O      0.475350000000     0.500000000000     0.052475000000   
Si     0.382300000000     0.940650000000     0.086950000000   
Si     0.434400000000     0.904800000000     0.189400000000   
Si     0.460500000000     0.939900000000     0.041500000000   
O      0.074300000000     0.922300000000     0.180400000000   
O      0.132000000000     0.500000000000     0.178575000000   
O      0.165100000000     0.904100000000     0.186575000000   
O      0.099450000000     0.936150000000     0.106600000000   
O      0.068450000000     0.932300000000     0.014175000000   
O      0.009550000000     0.904850000000     0.058150000000   
O      0.024650000000     0.500000000000     0.197525000000   
Si     0.117700000000     0.940650000000     0.163050000000   
Si     0.065600000000     0.904800000000     0.060600000000   
Si     0.039500000000     0.939900000000     0.208500000000   
O      0.074300000000     0.577700000000     0.180400000000   
O      0.165100000000     0.595900000000     0.186575000000   
O      0.099450000000     0.563850000000     0.106600000000   
O      0.068450000000     0.567700000000     0.014175000000   
O      0.009550000000     0.595150000000     0.058150000000   
Si     0.117700000000     0.559350000000     0.163050000000   
Si     0.065600000000     0.595200000000     0.060600000000   
Si     0.039500000000     0.560100000000     0.208500000000   
O      0.425700000000     0.577700000000     0.069600000000   
O      0.334900000000     0.595900000000     0.063425000000   
O      0.400550000000     0.563850000000     0.143400000000   
O      0.431550000000     0.567700000000     0.235825000000   
O      0.490450000000     0.595150000000     0.191850000000   
Si     0.382300000000     0.559350000000     0.086950000000   
Si     0.434400000000     0.595200000000     0.189400000000   
Si     0.460500000000     0.560100000000     0.041500000000   
O      0.175700000000     0.672300000000     0.319600000000   
O      0.118000000000     0.750000000000     0.321425000000   
O      0.084900000000     0.654100000000     0.313425000000   
O      0.150550000000     0.686150000000     0.393400000000   
O      0.181550000000     0.682300000000     0.485825000000   
O      0.240450000000     0.654850000000     0.441850000000   
O      0.225350000000     0.750000000000     0.302475000000   
Si     0.132300000000     0.690650000000     0.336950000000   
Si     0.184400000000     0.654800000000     0.439400000000   
Si     0.210500000000     0.689900000000     0.291500000000   
O      0.324300000000     0.672300000000     0.430400000000   
O      0.382000000000     0.750000000000     0.428575000000   
O      0.415100000000     0.654100000000     0.436575000000   
O      0.349450000000     0.686150000000     0.356600000000   
O      0.318450000000     0.682300000000     0.264175000000   
O      0.259550000000     0.654850000000     0.308150000000   
O      0.274650000000     0.750000000000     0.447525000000   
Si     0.367700000000     0.690650000000     0.413050000000   
Si     0.315600000000     0.654800000000     0.310600000000   
Si     0.289500000000     0.689900000000     0.458500000000   
O      0.324300000000     0.827700000000     0.430400000000   
O      0.415100000000     0.845900000000     0.436575000000   
O      0.349450000000     0.813850000000     0.356600000000   
O      0.318450000000     0.817700000000     0.264175000000   
O      0.259550000000     0.845150000000     0.308150000000   
Si     0.367700000000     0.809350000000     0.413050000000   
Si     0.315600000000     0.845200000000     0.310600000000   
Si     0.289500000000     0.810100000000     0.458500000000   
O      0.175700000000     0.827700000000     0.319600000000   
O      0.084900000000     0.845900000000     0.313425000000   
O      0.150550000000     0.813850000000     0.393400000000   
O      0.181550000000     0.817700000000     0.485825000000   
O      0.240450000000     0.845150000000     0.441850000000   
Si     0.132300000000     0.809350000000     0.336950000000   
Si     0.184400000000     0.845200000000     0.439400000000   
Si     0.210500000000     0.810100000000     0.291500000000   
O      0.425700000000     0.922300000000     0.319600000000   
O      0.368000000000     0.500000000000     0.321425000000   
O      0.334900000000     0.904100000000     0.313425000000   
O      0.400550000000     0.936150000000     0.393400000000   
O      0.431550000000     0.932300000000     0.485825000000   
O      0.490450000000     0.904850000000     0.441850000000   
O      0.475350000000     0.500000000000     0.302475000000   
Si     0.382300000000     0.940650000000     0.336950000000   
Si     0.434400000000     0.904800000000     0.439400000000   
Si     0.460500000000     0.939900000000     0.291500000000   
O      0.074300000000     0.922300000000     0.430400000000   
O      0.132000000000     0.500000000000     0.428575000000   
O      0.165100000000     0.904100000000     0.436575000000   
O      0.099450000000     0.936150000000     0.356600000000   
O      0.068450000000     0.932300000000     0.264175000000   
O      0.009550000000     0.904850000000     0.308150000000   
O      0.024650000000     0.500000000000     0.447525000000   
Si     0.117700000000     0.940650000000     0.413050000000   
Si     0.065600000000     0.904800000000     0.310600000000   
Si     0.039500000000     0.939900000000     0.458500000000   
O      0.074300000000     0.577700000000     0.430400000000   
O      0.165100000000     0.595900000000     0.436575000000   
O      0.099450000000     0.563850000000     0.356600000000   
O      0.068450000000     0.567700000000     0.264175000000   
O      0.009550000000     0.595150000000     0.308150000000   
Si     0.117700000000     0.559350000000     0.413050000000   
Si     0.065600000000     0.595200000000     0.310600000000   
Si     0.039500000000     0.560100000000     0.458500000000   
O      0.425700000000     0.577700000000     0.319600000000   
O      0.334900000000     0.595900000000     0.313425000000   
O      0.400550000000     0.563850000000     0.393400000000   
O      0.431550000000     0.567700000000     0.485825000000   
O      0.490450000000     0.595150000000     0.441850000000   
Si     0.382300000000     0.559350000000     0.336950000000   
Si     0.434400000000     0.595200000000     0.439400000000   
Si     0.460500000000     0.560100000000     0.291500000000   
O      0.175700000000     0.672300000000     0.569600000000   
O      0.118000000000     0.750000000000     0.571425000000   
O      0.084900000000     0.654100000000     0.563425000000   
O      0.150550000000     0.686150000000     0.643400000000   
O      0.181550000000     0.682300000000     0.735825000000   
O      0.240450000000     0.654850000000     0.691850000000   
O      0.225350000000     0.750000000000     0.552475000000   
Si     0.132300000000     0.690650000000     0.586950000000   
Si     0.184400000000     0.654800000000     0.689400000000   
Si     0.210500000000     0.689900000000     0.541500000000   
O      0.324300000000     0.672300000000     0.680400000000   
O      0.382000000000     0.750000000000     0.678575000000   
O      0.415100000000     0.654100000000     0.686575000000   
O      0.349450000000     0.686150000000     0.606600000000   
O      0.318450000000     0.682300000000     0.514175000000   
O      0.259550000000     0.654850000000     0.558150000000   
O      0.274650000000     0.750000000000     0.697525000000   
Si     0.367700000000     0.690650000000     0.663050000000   
Si     0.315600000000     0.654800000000     0.560600000000   
Si     0.289500000000     0.689900000000     0.708500000000   
O      0.324300000000     0.827700000000     0.680400000000   
O      0.415100000000     0.845900000000     0.686575000000   
O      0.349450000000     0.813850000000     0.606600000000   
O      0.318450000000     0.817700000000     0.514175000000   
O      0.259550000000     0.845150000000     0.558150000000   
Si     0.367700000000     0.809350000000     0.663050000000   
Si     0.315600000000     0.845200000000     0.560600000000   
Si     0.289500000000     0.810100000000     0.708500000000   
O      0.175700000000     0.827700000000     0.569600000000   
O      0.084900000000     0.845900000000     0.563425000000   
O      0.150550000000     0.813850000000     0.643400000000   
O      0.181550000000     0.817700000000     0.735825000000   
O      0.240450000000     0.845150000000     0.691850000000   
Si     0.132300000000     0.809350000000     0.586950000000   
Si     0.184400000000     0.845200000000     0.689400000000   
Si     0.210500000000     0.810100000000     0.541500000000   
O      0.425700000000     0.922300000000     0.569600000000   
O      0.368000000000     0.500000000000     0.571425000000   
O      0.334900000000     0.904100000000     0.563425000000   
O      0.400550000000     0.936150000000     0.643400000000   