%BLOCK LATTICE_CART
ang    # angstrom units
  7.187000000000     0.000000000000     0.000000000000   
 -3.593500000000     6.224124576999     0.000000000000   
  0.000000000000     0.000000000000     13.846000000000  
%ENDBLOCK LATTICE_CART

%BLOCK POSITIONS_FRAC
O      0.175620000000     0.151260000000     0.172500000000   
O      0.109160000000     0.018320000000     0.125000000000   
O      0.000000000000     0.000000000000     0.000000000000   
Si     0.160720000000     0.121460000000     0.125000000000   
Si     0.000000000000     0.000000000000     0.192000000000   
O      0.024360000000     0.175620000000     0.422500000000   
O      0.090840000000     0.109160000000     0.375000000000   
O      0.000000000000     0.000000000000     0.250000000000   
Si     0.039260000000     0.160720000000     0.375000000000   
Si     0.000000000000     0.000000000000     0.442000000000   
O      0.048740000000     0.024360000000     0.172500000000   
O      0.181680000000     0.090840000000     0.125000000000   
Si     0.078540000000     0.039260000000     0.125000000000   
O      0.024380000000     0.048740000000     0.422500000000   
O      0.090840000000     0.181680000000     0.375000000000   
Si     0.039280000000     0.078540000000     0.375000000000   
O      0.175640000000     0.024380000000     0.172500000000   
O      0.109160000000     0.090840000000     0.125000000000   
Si     0.160740000000     0.039280000000     0.125000000000   
O      0.151260000000     0.175640000000     0.422500000000   
O      0.018320000000     0.109160000000     0.375000000000   
Si     0.121460000000     0.160740000000     0.375000000000   
O      0.048740000000     0.024380000000     0.077500000000   
Si     0.000000000000     0.000000000000     0.058000000000   
O      0.024360000000     0.048740000000     0.327500000000   
Si     0.000000000000     0.000000000000     0.308000000000   
O      0.175620000000     0.024360000000     0.077500000000   
O      0.151260000000     0.175620000000     0.327500000000   
O      0.175640000000     0.151260000000     0.077500000000   
O      0.024380000000     0.175640000000     0.327500000000   
O      0.175620000000     0.151260000000     0.672500000000   
O      0.109160000000     0.018320000000     0.625000000000   
O      0.000000000000     0.000000000000     0.500000000000   
Si     0.160720000000     0.121460000000     0.625000000000   
Si     0.000000000000     0.000000000000     0.692000000000   
O      0.024360000000     0.175620000000     0.922500000000   
O      0.090840000000     0.109160000000     0.875000000000   
O      0.000000000000     0.000000000000     0.750000000000   
Si     0.039260000000     0.160720000000     0.875000000000   
Si     0.000000000000     0.000000000000     0.942000000000   
O      0.048740000000     0.024360000000     0.672500000000   
O      0.181680000000     0.090840000000     0.625000000000   
Si     0.078540000000     0.039260000000     0.625000000000   
O      0.024380000000     0.048740000000     0.922500000000   
O      0.090840000000     0.181680000000     0.875000000000   
Si     0.039280000000     0.078540000000     0.875000000000   
O      0.175640000000     0.024380000000     0.672500000000   
O      0.109160000000     0.090840000000     0.625000000000   
Si     0.160740000000     0.039280000000     0.625000000000   
O      0.151260000000     0.175640000000     0.922500000000   
O      0.018320000000     0.109160000000     0.875000000000   
Si     0.121460000000     0.160740000000     0.875000000000   
O      0.048740000000     0.024380000000     0.577500000000   
Si     0.000000000000     0.000000000000     0.558000000000   
O      0.024360000000     0.048740000000     0.827500000000   
Si     0.000000000000     0.000000000000     0.808000000000   
O      0.175620000000     0.024360000000     0.577500000000   
O      0.151260000000     0.175620000000     0.827500000000   
O      0.175640000000     0.151260000000     0.577500000000   
O      0.024380000000     0.175640000000     0.827500000000   
O      0.175620000000     0.351260000000     0.172500000000   
O      0.109160000000     0.218320000000     0.125000000000   
O      0.000000000000     0.200000000000     0.000000000000   
Si     0.160720000000     0.321460000000     0.125000000000   
Si     0.000000000000     0.200000000000     0.192000000000   
O      0.024360000000     0.375620000000     0.422500000000   
O      0.090840000000     0.309160000000     0.375000000000   
O      0.000000000000     0.200000000000     0.250000000000   
Si     0.039260000000     0.360720000000     0.375000000000   
Si     0.000000000000     0.200000000000     0.442000000000   
O      0.048740000000     0.224360000000     0.172500000000   
O      0.181680000000     0.290840000000     0.125000000000   
Si     0.078540000000     0.239260000000     0.125000000000   
O      0.024380000000     0.248740000000     0.422500000000   
O      0.090840000000     0.381680000000     0.375000000000   
Si     0.039280000000     0.278540000000     0.375000000000   
O      0.175640000000     0.224380000000     0.172500000000   
O      0.109160000000     0.290840000000     0.125000000000   
Si     0.160740000000     0.239280000000     0.125000000000   
O      0.151260000000     0.375640000000     0.422500000000   
O      0.018320000000     0.309160000000     0.375000000000   
Si     0.121460000000     0.360740000000     0.375000000000   
O      0.048740000000     0.224380000000     0.077500000000   
Si     0.000000000000     0.200000000000     0.058000000000   
O      0.024360000000     0.248740000000     0.327500000000   
Si     0.000000000000     0.200000000000     0.308000000000   
O      0.175620000000     0.224360000000     0.077500000000   
O      0.151260000000     0.375620000000     0.327500000000   
O      0.175640000000     0.351260000000     0.077500000000   
O      0.024380000000     0.375640000000     0.327500000000   
O      0.175620000000     0.351260000000     0.672500000000   
O      0.109160000000     0.218320000000     0.625000000000   
O      0.000000000000     0.200000000000     0.500000000000   
Si     0.160720000000     0.321460000000     0.625000000000   
Si     0.000000000000     0.200000000000     0.692000000000   
O      0.024360000000     0.375620000000     0.922500000000   
O      0.090840000000     0.309160000000     0.875000000000   
O      0.000000000000     0.200000000000     0.750000000000   
Si     0.039260000000     0.360720000000     0.875000000000   
Si     0.000000000000     0.200000000000     0.942000000000   
O      0.048740000000     0.224360000000     0.672500000000   
O      0.181680000000     0.290840000000     0.625000000000   
Si     0.078540000000     0.239260000000     0.625000000000   
O      0.024380000000     0.248740000000     0.922500000000   
O      0.090840000000     0.381680000000     0.875000000000   
Si     0.039280000000     0.278540000000     0.875000000000   
O      0.175640000000     0.224380000000     0.672500000000   
O      0.109160000000     0.290840000000     0.625000000000   
Si     0.160740000000     0.239280000000     0.625000000000   
O      0.151260000000     0.375640000000     0.922500000000   
O      0.018320000000     0.309160000000     0.875000000000   
Si     0.121460000000     0.360740000000     0.875000000000   
O      0.048740000000     0.224380000000     0.577500000000   
Si     0.000000000000     0.200000000000     0.558000000000   
O      0.024360000000     0.248740000000     0.827500000000   
Si     0.000000000000     0.200000000000     0.808000000000   
O      0.175620000000     0.224360000000     0.577500000000   
O      0.151260000000     0.375620000000     0.827500000000   
O      0.175640000000     0.351260000000     0.577500000000   
O      0.024380000000     0.375640000000     0.827500000000   
O      0.175620000000     0.551260000000     0.172500000000   
O      0.109160000000     0.418320000000     0.125000000000   
O      0.000000000000     0.400000000000     0.000000000000   
Si     0.160720000000     0.521460000000     0.125000000000   
Si     0.000000000000     0.400000000000     0.192000000000   
O      0.024360000000     0.575620000000     0.422500000000   
O      0.090840000000     0.509160000000     0.375000000000   
O      0.000000000000     0.400000000000     0.250000000000   
Si     0.039260000000     0.560720000000     0.375000000000   
Si     0.000000000000     0.400000000000     0.442000000000   
O      0.048740000000     0.424360000000     0.172500000000   
O      0.181680000000     0.490840000000     0.125000000000   
Si     0.078540000000     0.439260000000     0.125000000000   
O      0.024380000000     0.448740000000     0.422500000000   
O      0.090840000000     0.581680000000     0.375000000000   
Si     0.039280000000     0.478540000000     0.375000000000   
O      0.175640000000     0.424380000000     0.172500000000   
O      0.109160000000     0.490840000000     0.125000000000   
Si     0.160740000000     0.439280000000     0.125000000000   
O      0.151260000000     0.575640000000     0.422500000000   
O      0.018320000000     0.509160000000     0.375000000000   
Si     0.121460000000     0.560740000000     0.375000000000   
O      0.048740000000     0.424380000000     0.077500000000   
Si     0.000000000000     0.400000000000     0.058000000000   
O      0.024360000000     0.448740000000     0.327500000000   
Si     0.000000000000     0.400000000000     0.308000000000   
O      0.175620000000     0.424360000000     0.077500000000   
O      0.151260000000     0.575620000000     0.327500000000   
O      0.175640000000     0.551260000000     0.077500000000   
O      0.024380000000     0.575640000000     0.327500000000   
O      0.175620000000     0.551260000000     0.672500000000   
O      0.109160000000     0.418320000000     0.625000000000   
O      0.000000000000     0.400000000000     0.500000000000   
Si     0.160720000000     0.521460000000     0.625000000000   
Si     0.000000000000     0.400000000000     0.692000000000   
O      0.024360000000     0.575620000000     0.922500000000   
O      0.090840000000     0.509160000000     0.875000000000   
O      0.000000000000     0.400000000000     0.750000000000   
Si     0.039260000000     0.560720000000     0.875000000000   
Si     0.000000000000     0.400000000000     0.942000000000   
O      0.048740000000     0.424360000000     0.672500000000   
O      0.181680000000     0.490840000000     0.625000000000   
Si     0.078540000000     0.439260000000     0.625000000000   
O      0.024380000000     0.448740000000     0.922500000000   
O      0.090840000000     0.581680000000     0.875000000000   
Si     0.039280000000     0.478540000000     0.875000000000   
O      0.175640000000     0.424380000000     0.672500000000   
O      0.109160000000     0.490840000000     0.625000000000   
Si     0.160740000000     0.439280000000     0.625000000000   
O      0.151260000000     0.575640000000     0.922500000000   
O      0.018320000000     0.509160000000     0.875000000000   
Si     0.121460000000     0.560740000000     0.875000000000   
O      0.048740000000     0.424380000000     0.577500000000   
Si     0.000000000000     0.400000000000     0.558000000000   
O      0.024360000000     0.448740000000     0.827500000000   
Si     0.000000000000     0.400000000000     0.808000000000   
O      0.175620000000     0.424360000000     0.577500000000   
O      0.151260000000     0.575620000000     0.827500000000   
O      0.175640000000     0.551260000000     0.577500000000   
O      0.024380000000     0.575640000000     0.827500000000   
O      0.175620000000     0.751260000000     0.172500000000   
O      0.109160000000     0.618320000000     0.125000000000   
O      0.000000000000     0.600000000000     0.000000000000   
Si     0.160720000000     0.721460000000     0.125000000000   
Si     0.000000000000     0.600000000000     0.192000000000   
O      0.024360000000     0.775620000000     0.422500000000   
O      0.090840000000     0.709160000000     0.375000000000   
O      0.000000000000     0.600000000000     0.250000000000   
Si     0.039260000000     0.760720000000     0.375000000000   
Si     0.000000000000     0.600000000000     0.442000000000   
O      0.048740000000     0.624360000000     0.172500000000   
O      0.181680000000     0.690840000000     0.125000000000   
Si     0.078540000000     0.639260000000     0.125000000000   
O      0.024380000000     0.648740000000     0.422500000000   
O      0.090840000000     0.781680000000     0.375000000000   
Si     0.039280000000     0.678540000000     0.375000000000   
O      0.175640000000     0.624380000000     0.172500000000   
O      0.109160000000     0.690840000000     0.125000000000   
Si     0.160740000000     0.639280000000     0.125000000000   
O      0.151260000000     0.775640000000     0.422500000000   
O      0.018320000000     0.709160000000     0.375000000000   
Si     0.121460000000     0.760740000000     0.375000000000   
O      0.048740000000     0.624380000000     0.077500000000   
Si     0.000000000000     0.600000000000     0.058000000000   
O      0.024360000000     0.648740000000     0.327500000000   
Si     0.000000000000     0.600000000000     0.308000000000   
O      0.175620000000     0.624360000000     0.077500000000   
O      0.151260000000     0.775620000000     0.327500000000   
O      0.175640000000     0.751260000000     0.077500000000   
O      0.024380000000     0.775640000000     0.327500000000   
O      0.175620000000     0.751260000000     0.672500000000   
O      0.109160000000     0.618320000000     0.625000000000   
O      0.000000000000     0.600000000000     0.500000000000   
Si     0.160720000000     0.721460000000     0.625000000000   
Si     0.000000000000     0.600000000000     0.692000000000   
O      0.024360000000     0.775620000000     0.922500000000   
O      0.090840000000     0.709160000000     0.875000000000   
O      0.000000000000     0.600000000000     0.750000000000   
Si     0.039260000000     0.760720000000     0.875000000000   
Si     0.000000000000     0.600000000000     0.942000000000   
O      0.048740000000     0.624360000000     0.672500000000   
O      0.181680000000     0.690840000000     0.625000000000   
Si     0.078540000000     0.639260000000     0.625000000000   
O      0.024380000000     0.648740000000     0.922500000000   
O      0.090840000000     0.781680000000     0.875000000000   
Si     0.039280000000     0.678540000000     0.875000000000   
O      0.175640000000     0.624380000000     0.672500000000   
O      0.109160000000     0.690840000000     0.625000000000   
Si     0.160740000000     0.639280000000     0.625000000000   
O      0.151260000000     0.775640000000     0.922500000000   
O      0.018320000000     0.709160000000     0.875000000000   
Si     0.121460000000     0.760740000000     0.875000000000   
O      0.048740000000     0.624380000000     0.577500000000   
Si     0.000000000000     0.600000000000     0.558000000000   
O      0.024360000000     0.648740000000     0.827500000000   
Si     0.000000000000     0.600000000000     0.808000000000   
O      0.175620000000     0.624360000000     0.577500000000   
O      0.151260000000     0.775620000000     0.827500000000   
O      0.175640000000     0.751260000000     0.577500000000   
O      0.024380000000     0.775640000000     0.827500000000   
O      0.175620000000     0.951260000000     0.172500000000   
O      0.109160000000     0.818320000000     0.125000000000   
O      0.000000000000     0.800000000000     0.000000000000   
Si     0.160720000000     0.921460000000     0.125000000000   
Si     0.000000000000     0.800000000000     0.192000000000   
O      0.024360000000     0.975620000000     0.422500000000   
O      0.090840000000     0.909160000000     0.375000000000   
O      0.000000000000     0.800000000000     0.250000000000   
Si     0.039260000000     0.960720000000     0.375000000000   
Si     0.000000000000     0.800000000000     0.442000000000   
O      0.048740000000     0.824360000000     0.172500000000   
O      0.181680000000     0.890840000000     0.125000000000   
Si     0.078540000000     0.839260000000     0.125000000000   
O      0.024380000000     0.848740000000     0.422500000000   
O      0.090840000000     0.981680000000     0.375000000000   
Si     0.039280000000     0.878540000000     0.375000000000   
O      0.175640000000     0.824380000000     0.172500000000   
O      0.109160000000     0.890840000000     0.125000000000   
Si     0.160740000000     0.839280000000     0.125000000000   
O      0.151260000000     0.975640000000     0.422500000000   
O      0.018320000000     0.909160000000     0.375000000000   
Si     0.121460000000     0.960740000000     0.375000000000   
O      0.048740000000     0.824380000000     0.077500000000   
Si     0.000000000000     0.800000000000     0.058000000000   
O      0.024360000000     0.848740000000     0.327500000000   
Si     0.000000000000     0.800000000000     0.308000000000   
O      0.175620000000     0.824360000000     0.077500000000   
O      0.151260000000     0.975620000000     0.327500000000   
O      0.175640000000     0.951260000000     0.077500000000   
O      0.024380000000     0.975640000000     0.327500000000   
O      0.175620000000     0.951260000000     0.672500000000   
O      0.109160000000     0.818320000000     0.625000000000   
O      0.000000000000     0.800000000000     0.500000000000   
Si     0.160720000000     0.921460000000     0.625000000000   
Si     0.000000000000     0.800000000000     0.692000000000   
O      0.024360000000     0.975620000000     0.922500000000   
O      0.090840000000     0.909160000000     0.875000000000   
O      0.000000000000     0.800000000000     0.750000000000   
Si     0.039260000000     0.960720000000     0.875000000000   
Si     0.000000000000     0.800000000000     0.942000000000   
O      0.048740000000     0.824360000000     0.672500000000   
O      0.181680000000     0.890840000000     0.625000000000   
Si     0.078540000000     0.839260000000     0.625000000000   
O      0.024380000000     0.848740000000     0.922500000000   
O      0.090840000000     0.981680000000     0.875000000000   
Si     0.039280000000     0.878540000000     0.875000000000   
O      0.175640000000     0.824380000000     0.672500000000   
O      0.109160000000     0.890840000000     0.625000000000   
Si     0.160740000000     0.839280000000     0.625000000000   
O      0.151260000000     0.975640000000     0.922500000000   
O      0.018320000000     0.909160000000     0.875000000000   
Si     0.121460000000     0.960740000000     0.875000000000   
O      0.048740000000     0.824380000000     0.577500000000   
Si     0.000000000000     0.800000000000     0.558000000000   
O      0.024360000000     0.848740000000     0.827500000000   
Si     0.000000000000     0.800000000000     0.808000000000   
O      0.175620000000     0.824360000000     0.577500000000   
O      0.151260000000     0.975620000000     0.827500000000   
O      0.175640000000     0.951260000000     0.577500000000   
O      0.024380000000     0.975640000000     0.827500000000   
O      0.375620000000     0.151260000000     0.172500000000   
O      0.309160000000     0.018320000000     0.125000000000   
O      0.200000000000     0.000000000000     0.000000000000   
Si     0.360720000000     0.121460000000     0.125000000000   
Si     0.200000000000     0.000000000000     0.192000000000   
O      0.224360000000     0.175620000000     0.422500000000   
O      0.290840000000     0.109160000000     0.375000000000   
O      0.200000000000     0.000000000000     0.250000000000   
Si     0.239260000000     0.160720000000     0.375000000000   
Si     0.200000000000     0.000000000000     0.442000000000   
O      0.248740000000     0.024360000000     0.172500000000   
O      0.381680000000     0.090840000000     0.125000000000   
Si     0.278540000000     0.039260000000     0.125000000000   
O      0.224380000000     0.048740000000     0.422500000000   
O      0.290840000000     0.181680000000     0.375000000000   
Si     0.239280000000     0.078540000000     0.375000000000   
O      0.375640000000     0.024380000000     0.172500000000   
O      0.309160000000     0.090840000000     0.125000000000   
Si     0.360740000000     0.039280000000     0.125000000000   
O      0.351260000000     0.175640000000     0.422500000000   
O      0.218320000000     0.109160000000     0.375000000000   
Si     0.321460000000     0.160740000000     0.375000000000   
O      0.248740000000     0.024380000000     0.077500000000   
Si     0.200000000000     0.000000000000     0.058000000000   
O      0.224360000000     0.048740000000     0.327500000000   
Si     0.200000000000     0.000000000000     0.308000000000   
O      0.375620000000     0.024360000000     0.077500000000   
O      0.351260000000     0.175620000000     0.327500000000   
O      0.375640000000     0.151260000000     0.077500000000   
O      0.224380000000     0.175640000000     0.327500000000   
O      0.375620000000     0.151260000000     0.672500000000   
O      0.309160000000     0.018320000000     0.625000000000   
O      0.200000000000     0.000000000000     0.500000000000   
Si     0.360720000000     0.121460000000     0.625000000000   
Si     0.200000000000     0.000000000000     0.692000000000   
O      0.224360000000     0.175620000000     0.922500000000   
O      0.290840000000     0.109160000000     0.875000000000   
O      0.200000000000     0.000000000000     0.750000000000   
Si     0.239260000000     0.160720000000     0.875000000000   
Si     0.200000000000     0.000000000000     0.942000000000   
O      0.248740000000     0.024360000000     0.672500000000   
O      0.381680000000     0.090840000000     0.625000000000   
Si     0.278540000000     0.039260000000     0.625000000000   
O      0.224380000000     0.048740000000     0.922500000000   
O      0.290840000000     0.181680000000     0.875000000000   
Si     0.239280000000     0.078540000000     0.875000000000   
O      0.375640000000     0.024380000000     0.672500000000   
O      0.309160000000     0.090840000000     0.625000000000   
Si     0.360740000000     0.039280000000     0.625000000000   
O      0.351260000000     0.175640000000     0.922500000000   
O      0.218320000000     0.109160000000     0.875000000000   
Si     0.321460000000     0.160740000000     0.875000000000   
O      0.248740000000     0.024380000000     0.577500000000   
Si     0.200000000000     0.000000000000     0.558000000000   
O      0.224360000000     0.048740000000     0.827500000000   
Si     0.200000000000     0.000000000000     0.808000000000   
O      0.375620000000     0.024360000000     0.577500000000   
O      0.351260000000     0.175620000000     0.827500000000   
O      0.375640000000     0.151260000000     0.577500000000   
O      0.224380000000     0.175640000000     0.827500000000   
O      0.375620000000     0.351260000000     0.172500000000   
O      0.309160000000     0.218320000000     0.125000000000   
O      0.200000000000     0.200000000000     0.000000000000   
Si     0.360720000000     0.321460000000     0.125000000000   
Si     0.200000000000     0.200000000000     0.192000000000   
O      0.224360000000     0.375620000000     0.422500000000   
O      0.290840000000     0.309160000000     0.375000000000   
O      0.200000000000     0.200000000000     0.250000000000   
Si     0.239260000000     0.360720000000     0.375000000000   
Si     0.200000000000     0.200000000000     0.442000000000   
O      0.248740000000     0.224360000000     0.172500000000   
O      0.381680000000     0.290840000000     0.125000000000   
Si     0.278540000000     0.239260000000     0.125000000000   
O      0.224380000000     0.248740000000     0.422500000000   
O      0.290840000000     0.381680000000     0.375000000000   
Si     0.239280000000     0.278540000000     0.375000000000   
O      0.375640000000     0.224380000000     0.172500000000   
O      0.309160000000     0.290840000000     0.125000000000   
Si     0.360740000000     0.239280000000     0.125000000000   
O      0.351260000000     0.375640000000     0.422500000000   
O      0.218320000000     0.309160000000     0.375000000000   
Si     0.321460000000     0.360740000000     0.375000000000   
O      0.248740000000     0.224380000000     0.077500000000   
Si     0.200000000000     0.200000000000     0.058000000000   
O      0.224360000000     0.248740000000     0.327500000000   
Si     0.200000000000     0.200000000000     0.308000000000   
O      0.375620000000     0.224360000000     0.077500000000   
O      0.351260000000     0.375620000000     0.327500000000   
O      0.375640000000     0.351260000000     0.077500000000   
O      0.224380000000     0.375640000000     0.327500000000   
O      0.375620000000     0.351260000000     0.672500000000   
O      0.309160000000     0.218320000000     0.625000000000   
O      0.200000000000     0.200000000000     0.500000000000   
Si     0.360720000000     0.321460000000     0.625000000000   
Si     0.200000000000     0.200000000000     0.692000000000   
O      0.224360000000     0.375620000000     0.922500000000   
O      0.290840000000     0.309160000000     0.875000000000   
O      0.200000000000     0.200000000000     0.750000000000   
Si     0.239260000000     0.360720000000     0.875000000000   
Si     0.200000000000     0.200000000000     0.942000000000   
O      0.248740000000     0.224360000000     0.672500000000   
O      0.381680000000     0.290840000000     0.625000000000   
Si     0.278540000000     0.239260000000     0.625000000000   
O      0.224380000000     0.248740000000     0.922500000000   
O      0.290840000000     0.381680000000     0.875000000000   
Si     0.239280000000     0.278540000000     0.875000000000   
O      0.375640000000     0.224380000000     0.672500000000   
O      0.309160000000     0.290840000000     0.625000000000   
Si     0.360740000000     0.239280000000     0.625000000000   
O      0.351260000000     0.375640000000     0.922500000000   
O      0.218320000000     0.309160000000     0.875000000000   
Si     0.321460000000     0.360740000000     0.875000000000   
O      0.248740000000     0.224380000000     0.577500000000   
Si     0.200000000000     0.200000000000     0.558000000000   
O      0.224360000000     0.248740000000     0.827500000000   
Si     0.200000000000     0.200000000000     0.808000000000   
O      0.375620000000     0.224360000000     0.577500000000   
O      0.351260000000     0.375620000000     0.827500000000   
O      0.375640000000     0.351260000000     0.577500000000   
O      0.224380000000     0.375640000000     0.827500000000   
O      0.375620000000     0.551260000000     0.172500000000   
O      0.309160000000     0.418320000000     0.125000000000   
O      0.200000000000     0.400000000000     0.000000000000   
Si     0.360720000000     0.521460000000     0.125000000000   
Si     0.200000000000     0.400000000000     0.192000000000   
O      0.224360000000     0.575620000000     0.422500000000   
O      0.290840000000     0.509160000000     0.375000000000   
O      0.200000000000     0.400000000000     0.250000000000   
Si     0.239260000000     0.560720000000     0.375000000000   
Si     0.200000000000     0.400000000000     0.442000000000   
O      0.248740000000     0.424360000000     0.172500000000   
O      0.381680000000     0.490840000000     0.125000000000   
Si     0.278540000000     0.439260000000     0.125000000000   
O      0.224380000000     0.448740000000     0.422500000000   
O      0.290840000000     0.581680000000     0.375000000000   
Si     0.239280000000     0.478540000000     0.375000000000   
O      0.375640000000     0.424380000000     0.172500000000   
O      0.309160000000     0.490840000000     0.125000000000   
Si     0.360740000000     0.439280000000     0.125000000000   
O      0.351260000000     0.575640000000     0.422500000000   
O      0.218320000000     0.509160000000     0.375000000000   
Si     0.321460000000     0.560740000000     0.375000000000   
O      0.248740000000     0.424380000000     0.077500000000   
Si     0.200000000000     0.400000000000     0.058000000000   
O      0.224360000000     0.448740000000     0.327500000000   
Si     0.200000000000     0.400000000000     0.308000000000   
O      0.375620000000     0.424360000000     0.077500000000   
O      0.351260000000     0.575620000000     0.327500000000   
O      0.375640000000     0.551260000000     0.077500000000   
O      0.224380000000     0.575640000000     0.327500000000   
O      0.375620000000     0.551260000000     0.672500000000   
O      0.309160000000     0.418320000000     0.625000000000   
O      0.200000000000     0.400000000000     0.500000000000   
Si     0.360720000000     0.521460000000     0.625000000000   
Si     0.200000000000     0.400000000000     0.692000000000   
O      0.224360000000     0.575620000000     0.922500000000   
O      0.290840000000     0.509160000000     0.875000000000   
O      0.200000000000     0.400000000000     0.750000000000   
Si     0.239260000000     0.560720000000     0.875000000000   
Si     0.200000000000     0.400000000000     0.942000000000   
O      0.248740000000     0.424360000000     0.672500000000   
O      0.381680000000     0.490840000000     0.625000000000   
Si     0.278540000000     0.439260000000     0.625000000000   
O      0.224380000000     0.448740000000     0.922500000000   
O      0.290840000000     0.581680000000     0.875000000000   
Si     0.239280000000     0.478540000000     0.875000000000   
O      0.375640000000     0.424380000000     0.672500000000   
O      0.309160000000     0.490840000000     0.625000000000   
Si     0.360740000000     0.439280000000     0.625000000000   
O      0.351260000000     0.575640000000     0.922500000000   
O      0.218320000000     0.509160000000     0.875000000000   
Si     0.321460000000     0.560740000000     0.875000000000   