%BLOCK LATTICE_CART
ang    # angstrom units
  17.191000000000    0.000000000000     0.000000000000   
 -8.595500000000     14.887842716458    0.000000000000   
  0.000000000000     0.000000000000     41.030000000000  
%ENDBLOCK LATTICE_CART

%BLOCK POSITIONS_FRAC
O      0.069100000000     0.284550000000     0.119900000000   
O      0.130000000000     0.259950000000     0.125400000000   
O      0.048400000000     0.201850000000     0.105700000000   
O      0.062600000000     0.229250000000     0.166700000000   
O      0.431400000000     0.215700000000     0.000400000000   
O      0.441500000000     0.275550000000     0.956300000000   
O      0.368750000000     0.237500000000     0.992500000000   
O      0.446150000000     0.295250000000     0.018600000000   
O      0.498550000000     0.142550000000     0.061300000000   
O      0.000000000000     0.121450000000     0.000000000000   
O      0.429550000000     0.070450000000     0.036400000000   
O      0.330700000000     0.415350000000     0.065500000000   
Si     0.077500000000     0.243900000000     0.129400000000   
Si     0.468400000000     0.121200000000     0.029100000000   
Si     0.315450000000     0.452450000000     0.069100000000   
Si     0.422050000000     0.256000000000     0.991900000000   
O      0.215450000000     0.284550000000     0.119900000000   
O      0.240050000000     0.370050000000     0.125400000000   
O      0.298150000000     0.346550000000     0.105700000000   
O      0.270750000000     0.333350000000     0.166700000000   
O      0.284300000000     0.215700000000     0.000400000000   
O      0.224450000000     0.165950000000     0.956300000000   
O      0.262500000000     0.131250000000     0.992500000000   
O      0.204750000000     0.150900000000     0.018600000000   
O      0.357450000000     0.356000000000     0.061300000000   
O      0.378550000000     0.378550000000     0.000000000000   
O      0.429550000000     0.359100000000     0.036400000000   
O      0.084650000000     0.415350000000     0.065500000000   
Si     0.256100000000     0.333600000000     0.129400000000   
Si     0.378800000000     0.347200000000     0.029100000000   
Si     0.047550000000     0.363000000000     0.069100000000   
Si     0.244000000000     0.166050000000     0.991900000000   
O      0.215450000000     0.430900000000     0.119900000000   
O      0.129950000000     0.370000000000     0.125400000000   
O      0.153450000000     0.451600000000     0.105700000000   
O      0.166650000000     0.437400000000     0.166700000000   
O      0.284300000000     0.068600000000     0.000400000000   
O      0.334050000000     0.058500000000     0.956300000000   
O      0.368750000000     0.131250000000     0.992500000000   
O      0.349100000000     0.053850000000     0.018600000000   
O      0.144000000000     0.001450000000     0.061300000000   
O      0.121450000000     0.000000000000     0.000000000000   
O      0.140900000000     0.070450000000     0.036400000000   
O      0.084650000000     0.169300000000     0.065500000000   
Si     0.166400000000     0.422500000000     0.129400000000   
Si     0.152800000000     0.031600000000     0.029100000000   
Si     0.137000000000     0.184550000000     0.069100000000   
Si     0.333950000000     0.077950000000     0.991900000000   
O      0.284550000000     0.069100000000     0.880100000000   
O      0.259950000000     0.130000000000     0.874600000000   
O      0.201850000000     0.048400000000     0.894300000000   
O      0.229250000000     0.062600000000     0.833300000000   
O      0.215700000000     0.431400000000     0.999600000000   
O      0.275550000000     0.441500000000     0.043700000000   
O      0.237500000000     0.368750000000     0.007500000000   
O      0.295250000000     0.446150000000     0.981400000000   
O      0.142550000000     0.498550000000     0.938700000000   
O      0.070450000000     0.429550000000     0.963600000000   
O      0.415350000000     0.330700000000     0.934500000000   
Si     0.243900000000     0.077500000000     0.870600000000   
Si     0.121200000000     0.468400000000     0.970900000000   
Si     0.452450000000     0.315450000000     0.930900000000   
Si     0.256000000000     0.422050000000     0.008100000000   
O      0.430900000000     0.215450000000     0.880100000000   
O      0.370000000000     0.129950000000     0.874600000000   
O      0.451600000000     0.153450000000     0.894300000000   
O      0.437400000000     0.166650000000     0.833300000000   
O      0.068600000000     0.284300000000     0.999600000000   
O      0.058500000000     0.334050000000     0.043700000000   
O      0.131250000000     0.368750000000     0.007500000000   
O      0.053850000000     0.349100000000     0.981400000000   
O      0.001450000000     0.144000000000     0.938700000000   
O      0.070450000000     0.140900000000     0.963600000000   
O      0.169300000000     0.084650000000     0.934500000000   
Si     0.422500000000     0.166400000000     0.870600000000   
Si     0.031600000000     0.152800000000     0.970900000000   
Si     0.184550000000     0.137000000000     0.930900000000   
Si     0.077950000000     0.333950000000     0.008100000000   
O      0.284550000000     0.215450000000     0.880100000000   
O      0.370050000000     0.240050000000     0.874600000000   
O      0.346550000000     0.298150000000     0.894300000000   
O      0.333350000000     0.270750000000     0.833300000000   
O      0.215700000000     0.284300000000     0.999600000000   
O      0.165950000000     0.224450000000     0.043700000000   
O      0.131250000000     0.262500000000     0.007500000000   
O      0.150900000000     0.204750000000     0.981400000000   
O      0.356000000000     0.357450000000     0.938700000000   
O      0.359100000000     0.429550000000     0.963600000000   
O      0.415350000000     0.084650000000     0.934500000000   
Si     0.333600000000     0.256100000000     0.870600000000   
Si     0.347200000000     0.378800000000     0.970900000000   
Si     0.363000000000     0.047550000000     0.930900000000   
Si     0.166050000000     0.244000000000     0.008100000000   
O      0.451600000000     0.298150000000     0.894300000000   
O      0.437400000000     0.270750000000     0.833300000000   
O      0.058500000000     0.224450000000     0.043700000000   
O      0.053850000000     0.204750000000     0.981400000000   
O      0.001450000000     0.357450000000     0.938700000000   
O      0.000000000000     0.378550000000     0.000000000000   
Si     0.422500000000     0.256100000000     0.870600000000   
Si     0.031600000000     0.378800000000     0.970900000000   
Si     0.184550000000     0.047550000000     0.930900000000   
Si     0.077950000000     0.244000000000     0.008100000000   
O      0.201850000000     0.153450000000     0.894300000000   
O      0.229250000000     0.166650000000     0.833300000000   
O      0.275550000000     0.334050000000     0.043700000000   
O      0.295250000000     0.349100000000     0.981400000000   
O      0.142550000000     0.144000000000     0.938700000000   
O      0.121450000000     0.121450000000     0.000000000000   
Si     0.243900000000     0.166400000000     0.870600000000   
Si     0.121200000000     0.152800000000     0.970900000000   
Si     0.452450000000     0.137000000000     0.930900000000   
Si     0.256000000000     0.333950000000     0.008100000000   
O      0.346550000000     0.048400000000     0.894300000000   
O      0.333350000000     0.062600000000     0.833300000000   
O      0.165950000000     0.441500000000     0.043700000000   
O      0.150900000000     0.446150000000     0.981400000000   
O      0.356000000000     0.498550000000     0.938700000000   
O      0.378550000000     0.000000000000     0.000000000000   
Si     0.333600000000     0.077500000000     0.870600000000   
Si     0.347200000000     0.468400000000     0.970900000000   
Si     0.363000000000     0.315450000000     0.930900000000   
Si     0.166050000000     0.422050000000     0.008100000000   
O      0.298150000000     0.451600000000     0.105700000000   
O      0.270750000000     0.437400000000     0.166700000000   
O      0.224450000000     0.058500000000     0.956300000000   
O      0.204750000000     0.053850000000     0.018600000000   
O      0.357450000000     0.001450000000     0.061300000000   
Si     0.256100000000     0.422500000000     0.129400000000   
Si     0.378800000000     0.031600000000     0.029100000000   
Si     0.047550000000     0.184550000000     0.069100000000   
Si     0.244000000000     0.077950000000     0.991900000000   
O      0.048400000000     0.346550000000     0.105700000000   
O      0.062600000000     0.333350000000     0.166700000000   
O      0.441500000000     0.165950000000     0.956300000000   
O      0.446150000000     0.150900000000     0.018600000000   
O      0.498550000000     0.356000000000     0.061300000000   
Si     0.077500000000     0.333600000000     0.129400000000   
Si     0.468400000000     0.347200000000     0.029100000000   
Si     0.315450000000     0.363000000000     0.069100000000   
Si     0.422050000000     0.166050000000     0.991900000000   
O      0.153450000000     0.201850000000     0.105700000000   
O      0.166650000000     0.229250000000     0.166700000000   
O      0.334050000000     0.275550000000     0.956300000000   
O      0.349100000000     0.295250000000     0.018600000000   
O      0.144000000000     0.142550000000     0.061300000000   
Si     0.166400000000     0.243900000000     0.129400000000   
Si     0.152800000000     0.121200000000     0.029100000000   
Si     0.137000000000     0.452450000000     0.069100000000   
Si     0.333950000000     0.256000000000     0.991900000000   
O      0.402433333333     0.451216666667     0.453233333333   
O      0.463333333333     0.426616666667     0.458733333333   
O      0.381733333333     0.368516666667     0.439033333333   
O      0.395933333333     0.395916666667     0.500033333333   
O      0.264733333333     0.382366666667     0.333733333333   
O      0.274833333333     0.442216666667     0.289633333333   
O      0.202083333333     0.404166666667     0.325833333333   
O      0.279483333333     0.461916666667     0.351933333333   
O      0.331883333333     0.309216666667     0.394633333333   
O      0.333333333333     0.288116666667     0.333333333333   
O      0.262883333333     0.237116666667     0.369733333333   
O      0.164033333333     0.082016666667     0.398833333333   
Si     0.410833333333     0.410566666667     0.462733333333   
Si     0.301733333333     0.287866666667     0.362433333333   
Si     0.148783333333     0.119116666667     0.402433333333   
Si     0.255383333333     0.422666666667     0.325233333333   
O      0.048783333333     0.451216666667     0.453233333333   
O      0.073383333333     0.036716666667     0.458733333333   
O      0.131483333333     0.013216666667     0.439033333333   
O      0.104083333333     0.000016666667     0.500033333333   
O      0.117633333333     0.382366666667     0.333733333333   
O      0.057783333333     0.332616666667     0.289633333333   
O      0.095833333333     0.297916666667     0.325833333333   
O      0.038083333333     0.317566666667     0.351933333333   
O      0.190783333333     0.022666666667     0.394633333333   
O      0.211883333333     0.045216666667     0.333333333333   
O      0.262883333333     0.025766666667     0.369733333333   
O      0.417983333333     0.082016666667     0.398833333333   
Si     0.089433333333     0.000266666667     0.462733333333   
Si     0.212133333333     0.013866666667     0.362433333333   
Si     0.380883333333     0.029666666667     0.402433333333   
Si     0.077333333333     0.332716666667     0.325233333333   
O      0.048783333333     0.097566666667     0.453233333333   
O      0.463283333333     0.036666666667     0.458733333333   
O      0.486783333333     0.118266666667     0.439033333333   
O      0.499983333333     0.104066666667     0.500033333333   
O      0.117633333333     0.235266666667     0.333733333333   
O      0.167383333333     0.225166666667     0.289633333333   
O      0.202083333333     0.297916666667     0.325833333333   
O      0.182433333333     0.220516666667     0.351933333333   
O      0.477333333333     0.168116666667     0.394633333333   
O      0.454783333333     0.166666666667     0.333333333333   
O      0.474233333333     0.237116666667     0.369733333333   
O      0.417983333333     0.335966666667     0.398833333333   
Si     0.499733333333     0.089166666667     0.462733333333   
Si     0.486133333333     0.198266666667     0.362433333333   
Si     0.470333333333     0.351216666667     0.402433333333   
Si     0.167283333333     0.244616666667     0.325233333333   
O      0.117883333333     0.235766666667     0.213433333333   
O      0.093283333333     0.296666666667     0.207933333333   
O      0.035183333333     0.215066666667     0.227633333333   
O      0.049033333333     0.098066666667     0.332933333333   
O      0.108883333333     0.108166666667     0.377033333333   
O      0.070833333333     0.035416666667     0.340833333333   
O      0.128583333333     0.112816666667     0.314733333333   
O      0.475883333333     0.165216666667     0.272033333333   
O      0.403783333333     0.096216666667     0.296933333333   
O      0.248683333333     0.497366666667     0.267833333333   
Si     0.077233333333     0.244166666667     0.203933333333   
Si     0.454533333333     0.135066666667     0.304233333333   
Si     0.285783333333     0.482116666667     0.264233333333   
Si     0.089333333333     0.088716666667     0.341433333333   
O      0.264233333333     0.382116666667     0.213433333333   
O      0.203333333333     0.296616666667     0.207933333333   
O      0.284933333333     0.320116666667     0.227633333333   
O      0.401933333333     0.450966666667     0.332933333333   
O      0.391833333333     0.000716666667     0.377033333333   
O      0.464583333333     0.035416666667     0.340833333333   
O      0.387183333333     0.015766666667     0.314733333333   
O      0.334783333333     0.310666666667     0.272033333333   
O      0.403783333333     0.307566666667     0.296933333333   
O      0.002633333333     0.251316666667     0.267833333333   
Si     0.255833333333     0.333066666667     0.203933333333   
Si     0.364933333333     0.319466666667     0.304233333333   
Si     0.017883333333     0.303666666667     0.264233333333   
Si     0.411283333333     0.000616666667     0.341433333333   
O      0.117883333333     0.382116666667     0.213433333333   
O      0.203383333333     0.406716666667     0.207933333333   
O      0.179883333333     0.464816666667     0.227633333333   
O      0.049033333333     0.450966666667     0.332933333333   
O      0.499283333333     0.391116666667     0.377033333333   
O      0.464583333333     0.429166666667     0.340833333333   
O      0.484233333333     0.371416666667     0.314733333333   
O      0.189333333333     0.024116666667     0.272033333333   
O      0.192433333333     0.096216666667     0.296933333333   
O      0.248683333333     0.251316666667     0.267833333333   
Si     0.166933333333     0.422766666667     0.203933333333   
Si     0.180533333333     0.045466666667     0.304233333333   
Si     0.196333333333     0.214216666667     0.264233333333   
Si     0.499383333333     0.410666666667     0.341433333333   
O      0.284933333333     0.464816666667     0.227633333333   
O      0.391833333333     0.391116666667     0.377033333333   
O      0.387183333333     0.371416666667     0.314733333333   
O      0.334783333333     0.024116666667     0.272033333333   
O      0.333333333333     0.045216666667     0.333333333333   
Si     0.255833333333     0.422766666667     0.203933333333   
Si     0.364933333333     0.045466666667     0.304233333333   
Si     0.017883333333     0.214216666667     0.264233333333   
Si     0.411283333333     0.410666666667     0.341433333333   
O      0.035183333333     0.320116666667     0.227633333333   
O      0.108883333333     0.000716666667     0.377033333333   
O      0.128583333333     0.015766666667     0.314733333333   
O      0.475883333333     0.310666666667     0.272033333333   
O      0.454783333333     0.288116666667     0.333333333333   
Si     0.077233333333     0.333066666667     0.203933333333   
Si     0.454533333333     0.319466666667     0.304233333333   
Si     0.285783333333     0.303666666667     0.264233333333   
Si     0.089333333333     0.000616666667     0.341433333333   
O      0.179883333333     0.215066666667     0.227633333333   
O      0.499283333333     0.108166666667     0.377033333333   
O      0.484233333333     0.112816666667     0.314733333333   
O      0.189333333333     0.165216666667     0.272033333333   
O      0.211883333333     0.166666666667     0.333333333333   
Si     0.166933333333     0.244166666667     0.203933333333   
Si     0.180533333333     0.135066666667     0.304233333333   
Si     0.196333333333     0.482116666667     0.264233333333   
Si     0.499383333333     0.088716666667     0.341433333333   
O      0.131483333333     0.118266666667     0.439033333333   
O      0.104083333333     0.104066666667     0.500033333333   
O      0.057783333333     0.225166666667     0.289633333333   
O      0.038083333333     0.220516666667     0.351933333333   
O      0.190783333333     0.168116666667     0.394633333333   
Si     0.089433333333     0.089166666667     0.462733333333   
Si     0.212133333333     0.198266666667     0.362433333333   
Si     0.380883333333     0.351216666667     0.402433333333   
Si     0.077333333333     0.244616666667     0.325233333333   
O      0.381733333333     0.013216666667     0.439033333333   
O      0.395933333333     0.000016666667     0.500033333333   
O      0.274833333333     0.332616666667     0.289633333333   
O      0.279483333333     0.317566666667     0.351933333333   
O      0.331883333333     0.022666666667     0.394633333333   
Si     0.410833333333     0.000266666667     0.462733333333   
Si     0.301733333333     0.013866666667     0.362433333333   
Si     0.148783333333     0.029666666667     0.402433333333   
Si     0.255383333333     0.332716666667     0.325233333333   
O      0.486783333333     0.368516666667     0.439033333333   
O      0.499983333333     0.395916666667     0.500033333333   
O      0.167383333333     0.442216666667     0.289633333333   
O      0.182433333333     0.461916666667     0.351933333333   
O      0.477333333333     0.309216666667     0.394633333333   
Si     0.499733333333     0.410566666667     0.462733333333   
Si     0.486133333333     0.287866666667     0.362433333333   
Si     0.470333333333     0.119116666667     0.402433333333   
Si     0.167283333333     0.422666666667     0.325233333333   
O      0.235766666667     0.117883333333     0.786566666667   
O      0.296666666667     0.093283333333     0.792066666667   
O      0.215066666667     0.035183333333     0.772366666667   
O      0.098066666667     0.049033333333     0.667066666667   
O      0.108166666667     0.108883333333     0.622966666667   
O      0.035416666667     0.070833333333     0.659166666667   
O      0.112816666667     0.128583333333     0.685266666667   
O      0.165216666667     0.475883333333     0.727966666667   
O      0.166666666667     0.454783333333     0.666666666667   
O      0.096216666667     0.403783333333     0.703066666667   
O      0.497366666667     0.248683333333     0.732166666667   
Si     0.244166666667     0.077233333333     0.796066666667   
Si     0.135066666667     0.454533333333     0.695766666667   
Si     0.482116666667     0.285783333333     0.735766666667   
Si     0.088716666667     0.089333333333     0.658566666667   
O      0.382116666667     0.117883333333     0.786566666667   
O      0.406716666667     0.203383333333     0.792066666667   
O      0.464816666667     0.179883333333     0.772366666667   
O      0.450966666667     0.049033333333     0.667066666667   
O      0.391116666667     0.499283333333     0.622966666667   
O      0.429166666667     0.464583333333     0.659166666667   
O      0.371416666667     0.484233333333     0.685266666667   
O      0.024116666667     0.189333333333     0.727966666667   
O      0.045216666667     0.211883333333     0.666666666667   
O      0.096216666667     0.192433333333     0.703066666667   
O      0.251316666667     0.248683333333     0.732166666667   
Si     0.422766666667     0.166933333333     0.796066666667   
Si     0.045466666667     0.180533333333     0.695766666667   
Si     0.214216666667     0.196333333333     0.735766666667   
Si     0.410666666667     0.499383333333     0.658566666667   
O      0.382116666667     0.264233333333     0.786566666667   
O      0.296616666667     0.203333333333     0.792066666667   
O      0.320116666667     0.284933333333     0.772366666667   
O      0.450966666667     0.401933333333     0.667066666667   
O      0.000716666667     0.391833333333     0.622966666667   
O      0.035416666667     0.464583333333     0.659166666667   
O      0.015766666667     0.387183333333     0.685266666667   
O      0.310666666667     0.334783333333     0.727966666667   
O      0.288116666667     0.333333333333     0.666666666667   
O      0.307566666667     0.403783333333     0.703066666667   
O      0.251316666667     0.002633333333     0.732166666667   
Si     0.333066666667     0.255833333333     0.796066666667   
Si     0.319466666667     0.364933333333     0.695766666667   
Si     0.303666666667     0.017883333333     0.735766666667   
Si     0.000616666667     0.411283333333     0.658566666667   
O      0.451216666667     0.402433333333     0.546766666667   
O      0.426616666667     0.463333333333     0.541266666667   
O      0.368516666667     0.381733333333     0.560966666667   
O      0.382366666667     0.264733333333     0.666266666667   
O      0.442216666667     0.274833333333     0.710366666667   
O      0.404166666667     0.202083333333     0.674166666667   
O      0.461916666667     0.279483333333     0.648066666667   
O      0.309216666667     0.331883333333     0.605366666667   
O      0.237116666667     0.262883333333     0.630266666667   
O      0.082016666667     0.164033333333     0.601166666667   
Si     0.410566666667     0.410833333333     0.537266666667   
Si     0.287866666667     0.301733333333     0.637566666667   
Si     0.119116666667     0.148783333333     0.597566666667   
Si     0.422666666667     0.255383333333     0.674766666667   
O      0.097566666667     0.048783333333     0.546766666667   
O      0.036666666667     0.463283333333     0.541266666667   
O      0.118266666667     0.486783333333     0.560966666667   
O      0.104066666667     0.499983333333     0.499966666667   
O      0.235266666667     0.117633333333     0.666266666667   
O      0.225166666667     0.167383333333     0.710366666667   
O      0.297916666667     0.202083333333     0.674166666667   
O      0.220516666667     0.182433333333     0.648066666667   
O      0.168116666667     0.477333333333     0.605366666667   
O      0.237116666667     0.474233333333     0.630266666667   
O      0.335966666667     0.417983333333     0.601166666667   
Si     0.089166666667     0.499733333333     0.537266666667   
Si     0.198266666667     0.486133333333     0.637566666667   
Si     0.351216666667     0.470333333333     0.597566666667   
Si     0.244616666667     0.167283333333     0.674766666667   
O      0.451216666667     0.048783333333     0.546766666667   
O      0.036716666667     0.073383333333     0.541266666667   
O      0.013216666667     0.131483333333     0.560966666667   
O      0.000016666667     0.104083333333     0.499966666667   
O      0.382366666667     0.117633333333     0.666266666667   
O      0.332616666667     0.057783333333     0.710366666667   
O      0.297916666667     0.095833333333     0.674166666667   
O      0.317566666667     0.038083333333     0.648066666667   
O      0.022666666667     0.190783333333     0.605366666667   
O      0.025766666667     0.262883333333     0.630266666667   
O      0.082016666667     0.417983333333     0.601166666667   
Si     0.000266666667     0.089433333333     0.537266666667   
Si     0.013866666667     0.212133333333     0.637566666667   
Si     0.029666666667     0.380883333333     0.597566666667   
Si     0.332716666667     0.077333333333     0.674766666667   
O      0.118266666667     0.131483333333     0.560966666667   
O      0.225166666667     0.057783333333     0.710366666667   
O      0.220516666667     0.038083333333     0.648066666667   
O      0.168116666667     0.190783333333     0.605366666667   
O      0.166666666667     0.211883333333     0.666666666667   
Si     0.089166666667     0.089433333333     0.537266666667   
Si     0.198266666667     0.212133333333     0.637566666667   
Si     0.351216666667     0.380883333333     0.597566666667   
Si     0.244616666667     0.077333333333     0.674766666667   
O      0.368516666667     0.486783333333     0.560966666667   
O      0.395916666667     0.499983333333     0.499966666667   
O      0.442216666667     0.167383333333     0.710366666667   
O      0.461916666667     0.182433333333     0.648066666667   
O      0.309216666667     0.477333333333     0.605366666667   
O      0.288116666667     0.454783333333     0.666666666667   
Si     0.410566666667     0.499733333333     0.537266666667   
Si     0.287866666667     0.486133333333     0.637566666667   
Si     0.119116666667     0.470333333333     0.597566666667   
Si     0.422666666667     0.167283333333     0.674766666667   
O      0.013216666667     0.381733333333     0.560966666667   
O      0.000016666667     0.395933333333     0.499966666667   
O      0.332616666667     0.274833333333     0.710366666667   
O      0.317566666667     0.279483333333     0.648066666667   
O      0.022666666667     0.331883333333     0.605366666667   
O      0.045216666667     0.333333333333     0.666666666667   
Si     0.000266666667     0.410833333333     0.537266666667   
Si     0.013866666667     0.301733333333     0.637566666667   
Si     0.029666666667     0.148783333333     0.597566666667   
Si     0.332716666667     0.255383333333     0.674766666667   
O      0.464816666667     0.284933333333     0.772366666667   
O      0.391116666667     0.391833333333     0.622966666667   
O      0.371416666667     0.387183333333     0.685266666667   
O      0.024116666667     0.334783333333     0.727966666667   
Si     0.422766666667     0.255833333333     0.796066666667   
Si     0.045466666667     0.364933333333     0.695766666667   
Si     0.214216666667     0.017883333333     0.735766666667   
Si     0.410666666667     0.411283333333     0.658566666667   
O      0.215066666667     0.179883333333     0.772366666667   
O      0.108166666667     0.499283333333     0.622966666667   
O      0.112816666667     0.484233333333     0.685266666667   
O      0.165216666667     0.189333333333     0.727966666667   
Si     0.244166666667     0.166933333333     0.796066666667   
Si     0.135066666667     0.180533333333     0.695766666667   
Si     0.482116666667     0.196333333333     0.735766666667   
Si     0.088716666667     0.499383333333     0.658566666667   
O      0.320116666667     0.035183333333     0.772366666667   
O      0.000716666667     0.108883333333     0.622966666667   
O      0.015766666667     0.128583333333     0.685266666667   
O      0.310666666667     0.475883333333     0.727966666667   
Si     0.333066666667     0.077233333333     0.796066666667   
Si     0.319466666667     0.454533333333     0.695766666667   
Si     0.303666666667     0.285783333333     0.735766666667   
Si     0.000616666667     0.089333333333     0.658566666667   
O      0.069100000000     0.784550000000     0.119900000000   
O      0.130000000000     0.759950000000     0.125400000000   
O      0.048400000000     0.701850000000     0.105700000000   
O      0.062600000000     0.729250000000     0.166700000000   
O      0.431400000000     0.715700000000     0.000400000000   
O      0.441500000000     0.775550000000     0.956300000000   
O      0.368750000000     0.737500000000     0.992500000000   
O      0.446150000000     0.795250000000     0.018600000000   
O      0.498550000000     0.642550000000     0.061300000000   
O      0.000000000000     0.621450000000     0.000000000000   
O      0.429550000000     0.570450000000     0.036400000000   
O      0.330700000000     0.915350000000     0.065500000000   
Si     0.077500000000     0.743900000000     0.129400000000   
Si     0.468400000000     0.621200000000     0.029100000000   
Si     0.315450000000     0.952450000000     0.069100000000   
Si     0.422050000000     0.756000000000     0.991900000000   
O      0.215450000000     0.784550000000     0.119900000000   
O      0.240050000000     0.870050000000     0.125400000000   
O      0.298150000000     0.846550000000     0.105700000000   
O      0.270750000000     0.833350000000     0.166700000000   
O      0.284300000000     0.715700000000     0.000400000000   
O      0.224450000000     0.665950000000     0.956300000000   
O      0.262500000000     0.631250000000     0.992500000000   
O      0.204750000000     0.650900000000     0.018600000000   
O      0.357450000000     0.856000000000     0.061300000000   
O      0.378550000000     0.878550000000     0.000000000000   
O      0.429550000000     0.859100000000     0.036400000000   
O      0.084650000000     0.915350000000     0.065500000000   
Si     0.256100000000     0.833600000000     0.129400000000   
Si     0.378800000000     0.847200000000     0.029100000000   
Si     0.047550000000     0.863000000000     0.069100000000   
Si     0.244000000000     0.666050000000     0.991900000000   
O      0.215450000000     0.930900000000     0.119900000000   
O      0.129950000000     0.870000000000     0.125400000000   
O      0.153450000000     0.951600000000     0.105700000000   
O      0.166650000000     0.937400000000     0.166700000000   