%BLOCK LATTICE_CART
ang    # angstrom units
  7.184000000000     0.000000000000     0.000000000000   
  0.000000000000     7.184000000000     0.000000000000   
  0.000000000000     0.000000000000     12.043000000000  
%ENDBLOCK LATTICE_CART

%BLOCK POSITIONS_FRAC
O      0.000000000000     0.045625000000     0.025933333333   
O      0.000000000000     0.000000000000     0.245466666667   
O      0.079075000000     0.204075000000     0.250000000000   
Si     0.000000000000     0.000000000000     0.000000000000   
Si     0.051650000000     0.000000000000     0.263000000000   
O      0.045625000000     0.000000000000     0.307400000000   
O      0.000000000000     0.000000000000     0.087866666667   
O      0.204075000000     0.170925000000     0.083333333333   
Si     0.000000000000     0.198350000000     0.070333333333   
O      0.000000000000     0.204375000000     0.025933333333   
O      0.170925000000     0.045925000000     0.250000000000   
Si     0.198350000000     0.000000000000     0.263000000000   
O      0.204375000000     0.000000000000     0.307400000000   
O      0.045925000000     0.079075000000     0.083333333333   
Si     0.000000000000     0.051650000000     0.070333333333   
O      0.170925000000     0.204075000000     0.250000000000   
O      0.204075000000     0.079075000000     0.083333333333   
O      0.079075000000     0.045925000000     0.250000000000   
O      0.045925000000     0.170925000000     0.083333333333   
O      0.125000000000     0.170625000000     0.192600000000   
O      0.125000000000     0.125000000000     0.078800000000   
Si     0.125000000000     0.125000000000     0.166666666667   
Si     0.176650000000     0.125000000000     0.096333333333   
O      0.170625000000     0.125000000000     0.140733333333   
O      0.125000000000     0.125000000000     0.254533333333   
Si     0.125000000000     0.073350000000     0.237000000000   
O      0.125000000000     0.079375000000     0.192600000000   
Si     0.073350000000     0.125000000000     0.096333333333   
O      0.079375000000     0.125000000000     0.140733333333   
Si     0.125000000000     0.176650000000     0.237000000000   
O      0.000000000000     0.045625000000     0.359266666667   
O      0.000000000000     0.000000000000     0.578800000000   
O      0.079075000000     0.204075000000     0.583333333333   
Si     0.000000000000     0.000000000000     0.333333333333   
Si     0.051650000000     0.000000000000     0.596333333333   
O      0.045625000000     0.000000000000     0.640733333333   
O      0.000000000000     0.000000000000     0.421200000000   
O      0.204075000000     0.170925000000     0.416666666667   
Si     0.000000000000     0.198350000000     0.403666666667   
O      0.000000000000     0.204375000000     0.359266666667   
O      0.170925000000     0.045925000000     0.583333333333   
Si     0.198350000000     0.000000000000     0.596333333333   
O      0.204375000000     0.000000000000     0.640733333333   
O      0.045925000000     0.079075000000     0.416666666667   
Si     0.000000000000     0.051650000000     0.403666666667   
O      0.170925000000     0.204075000000     0.583333333333   
O      0.204075000000     0.079075000000     0.416666666667   
O      0.079075000000     0.045925000000     0.583333333333   
O      0.045925000000     0.170925000000     0.416666666667   
O      0.125000000000     0.170625000000     0.525933333333   
O      0.125000000000     0.125000000000     0.412133333333   
Si     0.125000000000     0.125000000000     0.500000000000   
Si     0.176650000000     0.125000000000     0.429666666667   
O      0.170625000000     0.125000000000     0.474066666667   
O      0.125000000000     0.125000000000     0.587866666667   
Si     0.125000000000     0.073350000000     0.570333333333   
O      0.125000000000     0.079375000000     0.525933333333   
Si     0.073350000000     0.125000000000     0.429666666667   
O      0.079375000000     0.125000000000     0.474066666667   
Si     0.125000000000     0.176650000000     0.570333333333   
O      0.000000000000     0.045625000000     0.692600000000   
O      0.000000000000     0.000000000000     0.912133333333   
O      0.079075000000     0.204075000000     0.916666666667   
Si     0.000000000000     0.000000000000     0.666666666667   
Si     0.051650000000     0.000000000000     0.929666666667   
O      0.045625000000     0.000000000000     0.974066666667   
O      0.000000000000     0.000000000000     0.754533333333   
O      0.204075000000     0.170925000000     0.750000000000   
Si     0.000000000000     0.198350000000     0.737000000000   
O      0.000000000000     0.204375000000     0.692600000000   
O      0.170925000000     0.045925000000     0.916666666667   
Si     0.198350000000     0.000000000000     0.929666666667   
O      0.204375000000     0.000000000000     0.974066666667   
O      0.045925000000     0.079075000000     0.750000000000   
Si     0.000000000000     0.051650000000     0.737000000000   
O      0.170925000000     0.204075000000     0.916666666667   
O      0.204075000000     0.079075000000     0.750000000000   
O      0.079075000000     0.045925000000     0.916666666667   
O      0.045925000000     0.170925000000     0.750000000000   
O      0.125000000000     0.170625000000     0.859266666667   
O      0.125000000000     0.125000000000     0.745466666667   
Si     0.125000000000     0.125000000000     0.833333333333   
Si     0.176650000000     0.125000000000     0.763000000000   
O      0.170625000000     0.125000000000     0.807400000000   
O      0.125000000000     0.125000000000     0.921200000000   
Si     0.125000000000     0.073350000000     0.903666666667   
O      0.125000000000     0.079375000000     0.859266666667   
Si     0.073350000000     0.125000000000     0.763000000000   
O      0.079375000000     0.125000000000     0.807400000000   
Si     0.125000000000     0.176650000000     0.903666666667   
O      0.000000000000     0.295625000000     0.025933333333   
O      0.000000000000     0.250000000000     0.245466666667   
O      0.079075000000     0.454075000000     0.250000000000   
Si     0.000000000000     0.250000000000     0.000000000000   
Si     0.051650000000     0.250000000000     0.263000000000   
O      0.045625000000     0.250000000000     0.307400000000   
O      0.000000000000     0.250000000000     0.087866666667   
O      0.204075000000     0.420925000000     0.083333333333   
Si     0.000000000000     0.448350000000     0.070333333333   
O      0.000000000000     0.454375000000     0.025933333333   
O      0.170925000000     0.295925000000     0.250000000000   
Si     0.198350000000     0.250000000000     0.263000000000   
O      0.204375000000     0.250000000000     0.307400000000   
O      0.045925000000     0.329075000000     0.083333333333   
Si     0.000000000000     0.301650000000     0.070333333333   
O      0.170925000000     0.454075000000     0.250000000000   
O      0.204075000000     0.329075000000     0.083333333333   
O      0.079075000000     0.295925000000     0.250000000000   
O      0.045925000000     0.420925000000     0.083333333333   
O      0.125000000000     0.420625000000     0.192600000000   
O      0.125000000000     0.375000000000     0.078800000000   
Si     0.125000000000     0.375000000000     0.166666666667   
Si     0.176650000000     0.375000000000     0.096333333333   
O      0.170625000000     0.375000000000     0.140733333333   
O      0.125000000000     0.375000000000     0.254533333333   
Si     0.125000000000     0.323350000000     0.237000000000   
O      0.125000000000     0.329375000000     0.192600000000   
Si     0.073350000000     0.375000000000     0.096333333333   
O      0.079375000000     0.375000000000     0.140733333333   
Si     0.125000000000     0.426650000000     0.237000000000   
O      0.000000000000     0.295625000000     0.359266666667   
O      0.000000000000     0.250000000000     0.578800000000   
O      0.079075000000     0.454075000000     0.583333333333   
Si     0.000000000000     0.250000000000     0.333333333333   
Si     0.051650000000     0.250000000000     0.596333333333   
O      0.045625000000     0.250000000000     0.640733333333   
O      0.000000000000     0.250000000000     0.421200000000   
O      0.204075000000     0.420925000000     0.416666666667   
Si     0.000000000000     0.448350000000     0.403666666667   
O      0.000000000000     0.454375000000     0.359266666667   
O      0.170925000000     0.295925000000     0.583333333333   
Si     0.198350000000     0.250000000000     0.596333333333   
O      0.204375000000     0.250000000000     0.640733333333   
O      0.045925000000     0.329075000000     0.416666666667   
Si     0.000000000000     0.301650000000     0.403666666667   
O      0.170925000000     0.454075000000     0.583333333333   
O      0.204075000000     0.329075000000     0.416666666667   
O      0.079075000000     0.295925000000     0.583333333333   
O      0.045925000000     0.420925000000     0.416666666667   
O      0.125000000000     0.420625000000     0.525933333333   
O      0.125000000000     0.375000000000     0.412133333333   
Si     0.125000000000     0.375000000000     0.500000000000   
Si     0.176650000000     0.375000000000     0.429666666667   
O      0.170625000000     0.375000000000     0.474066666667   
O      0.125000000000     0.375000000000     0.587866666667   
Si     0.125000000000     0.323350000000     0.570333333333   
O      0.125000000000     0.329375000000     0.525933333333   
Si     0.073350000000     0.375000000000     0.429666666667   
O      0.079375000000     0.375000000000     0.474066666667   
Si     0.125000000000     0.426650000000     0.570333333333   
O      0.000000000000     0.295625000000     0.692600000000   
O      0.000000000000     0.250000000000     0.912133333333   
O      0.079075000000     0.454075000000     0.916666666667   
Si     0.000000000000     0.250000000000     0.666666666667   
Si     0.051650000000     0.250000000000     0.929666666667   
O      0.045625000000     0.250000000000     0.974066666667   
O      0.000000000000     0.250000000000     0.754533333333   
O      0.204075000000     0.420925000000     0.750000000000   
Si     0.000000000000     0.448350000000     0.737000000000   
O      0.000000000000     0.454375000000     0.692600000000   
O      0.170925000000     0.295925000000     0.916666666667   
Si     0.198350000000     0.250000000000     0.929666666667   
O      0.204375000000     0.250000000000     0.974066666667   
O      0.045925000000     0.329075000000     0.750000000000   
Si     0.000000000000     0.301650000000     0.737000000000   
O      0.170925000000     0.454075000000     0.916666666667   
O      0.204075000000     0.329075000000     0.750000000000   
O      0.079075000000     0.295925000000     0.916666666667   
O      0.045925000000     0.420925000000     0.750000000000   
O      0.125000000000     0.420625000000     0.859266666667   
O      0.125000000000     0.375000000000     0.745466666667   
Si     0.125000000000     0.375000000000     0.833333333333   
Si     0.176650000000     0.375000000000     0.763000000000   
O      0.170625000000     0.375000000000     0.807400000000   
O      0.125000000000     0.375000000000     0.921200000000   
Si     0.125000000000     0.323350000000     0.903666666667   
O      0.125000000000     0.329375000000     0.859266666667   
Si     0.073350000000     0.375000000000     0.763000000000   
O      0.079375000000     0.375000000000     0.807400000000   
Si     0.125000000000     0.426650000000     0.903666666667   
O      0.000000000000     0.545625000000     0.025933333333   
O      0.000000000000     0.500000000000     0.245466666667   
O      0.079075000000     0.704075000000     0.250000000000   
Si     0.000000000000     0.500000000000     0.000000000000   
Si     0.051650000000     0.500000000000     0.263000000000   
O      0.045625000000     0.500000000000     0.307400000000   
O      0.000000000000     0.500000000000     0.087866666667   
O      0.204075000000     0.670925000000     0.083333333333   
Si     0.000000000000     0.698350000000     0.070333333333   
O      0.000000000000     0.704375000000     0.025933333333   
O      0.170925000000     0.545925000000     0.250000000000   
Si     0.198350000000     0.500000000000     0.263000000000   
O      0.204375000000     0.500000000000     0.307400000000   
O      0.045925000000     0.579075000000     0.083333333333   
Si     0.000000000000     0.551650000000     0.070333333333   
O      0.170925000000     0.704075000000     0.250000000000   
O      0.204075000000     0.579075000000     0.083333333333   
O      0.079075000000     0.545925000000     0.250000000000   
O      0.045925000000     0.670925000000     0.083333333333   
O      0.125000000000     0.670625000000     0.192600000000   
O      0.125000000000     0.625000000000     0.078800000000   
Si     0.125000000000     0.625000000000     0.166666666667   
Si     0.176650000000     0.625000000000     0.096333333333   
O      0.170625000000     0.625000000000     0.140733333333   
O      0.125000000000     0.625000000000     0.254533333333   
Si     0.125000000000     0.573350000000     0.237000000000   
O      0.125000000000     0.579375000000     0.192600000000   
Si     0.073350000000     0.625000000000     0.096333333333   
O      0.079375000000     0.625000000000     0.140733333333   
Si     0.125000000000     0.676650000000     0.237000000000   
O      0.000000000000     0.545625000000     0.359266666667   
O      0.000000000000     0.500000000000     0.578800000000   
O      0.079075000000     0.704075000000     0.583333333333   
Si     0.000000000000     0.500000000000     0.333333333333   
Si     0.051650000000     0.500000000000     0.596333333333   
O      0.045625000000     0.500000000000     0.640733333333   
O      0.000000000000     0.500000000000     0.421200000000   
O      0.204075000000     0.670925000000     0.416666666667   
Si     0.000000000000     0.698350000000     0.403666666667   
O      0.000000000000     0.704375000000     0.359266666667   
O      0.170925000000     0.545925000000     0.583333333333   
Si     0.198350000000     0.500000000000     0.596333333333   
O      0.204375000000     0.500000000000     0.640733333333   
O      0.045925000000     0.579075000000     0.416666666667   
Si     0.000000000000     0.551650000000     0.403666666667   
O      0.170925000000     0.704075000000     0.583333333333   
O      0.204075000000     0.579075000000     0.416666666667   
O      0.079075000000     0.545925000000     0.583333333333   
O      0.045925000000     0.670925000000     0.416666666667   
O      0.125000000000     0.670625000000     0.525933333333   
O      0.125000000000     0.625000000000     0.412133333333   
Si     0.125000000000     0.625000000000     0.500000000000   
Si     0.176650000000     0.625000000000     0.429666666667   
O      0.170625000000     0.625000000000     0.474066666667   
O      0.125000000000     0.625000000000     0.587866666667   
Si     0.125000000000     0.573350000000     0.570333333333   
O      0.125000000000     0.579375000000     0.525933333333   
Si     0.073350000000     0.625000000000     0.429666666667   
O      0.079375000000     0.625000000000     0.474066666667   
Si     0.125000000000     0.676650000000     0.570333333333   
O      0.000000000000     0.545625000000     0.692600000000   
O      0.000000000000     0.500000000000     0.912133333333   
O      0.079075000000     0.704075000000     0.916666666667   
Si     0.000000000000     0.500000000000     0.666666666667   
Si     0.051650000000     0.500000000000     0.929666666667   
O      0.045625000000     0.500000000000     0.974066666667   
O      0.000000000000     0.500000000000     0.754533333333   
O      0.204075000000     0.670925000000     0.750000000000   
Si     0.000000000000     0.698350000000     0.737000000000   
O      0.000000000000     0.704375000000     0.692600000000   
O      0.170925000000     0.545925000000     0.916666666667   
Si     0.198350000000     0.500000000000     0.929666666667   
O      0.204375000000     0.500000000000     0.974066666667   
O      0.045925000000     0.579075000000     0.750000000000   
Si     0.000000000000     0.551650000000     0.737000000000   
O      0.170925000000     0.704075000000     0.916666666667   
O      0.204075000000     0.579075000000     0.750000000000   
O      0.079075000000     0.545925000000     0.916666666667   
O      0.045925000000     0.670925000000     0.750000000000   
O      0.125000000000     0.670625000000     0.859266666667   
O      0.125000000000     0.625000000000     0.745466666667   
Si     0.125000000000     0.625000000000     0.833333333333   
Si     0.176650000000     0.625000000000     0.763000000000   
O      0.170625000000     0.625000000000     0.807400000000   
O      0.125000000000     0.625000000000     0.921200000000   
Si     0.125000000000     0.573350000000     0.903666666667   
O      0.125000000000     0.579375000000     0.859266666667   
Si     0.073350000000     0.625000000000     0.763000000000   
O      0.079375000000     0.625000000000     0.807400000000   
Si     0.125000000000     0.676650000000     0.903666666667   
O      0.000000000000     0.795625000000     0.025933333333   
O      0.000000000000     0.750000000000     0.245466666667   
O      0.079075000000     0.954075000000     0.250000000000   
Si     0.000000000000     0.750000000000     0.000000000000   
Si     0.051650000000     0.750000000000     0.263000000000   
O      0.045625000000     0.750000000000     0.307400000000   
O      0.000000000000     0.750000000000     0.087866666667   
O      0.204075000000     0.920925000000     0.083333333333   
Si     0.000000000000     0.948350000000     0.070333333333   
O      0.000000000000     0.954375000000     0.025933333333   
O      0.170925000000     0.795925000000     0.250000000000   
Si     0.198350000000     0.750000000000     0.263000000000   
O      0.204375000000     0.750000000000     0.307400000000   
O      0.045925000000     0.829075000000     0.083333333333   
Si     0.000000000000     0.801650000000     0.070333333333   
O      0.170925000000     0.954075000000     0.250000000000   
O      0.204075000000     0.829075000000     0.083333333333   
O      0.079075000000     0.795925000000     0.250000000000   
O      0.045925000000     0.920925000000     0.083333333333   
O      0.125000000000     0.920625000000     0.192600000000   
O      0.125000000000     0.875000000000     0.078800000000   
Si     0.125000000000     0.875000000000     0.166666666667   
Si     0.176650000000     0.875000000000     0.096333333333   
O      0.170625000000     0.875000000000     0.140733333333   
O      0.125000000000     0.875000000000     0.254533333333   
Si     0.125000000000     0.823350000000     0.237000000000   
O      0.125000000000     0.829375000000     0.192600000000   
Si     0.073350000000     0.875000000000     0.096333333333   
O      0.079375000000     0.875000000000     0.140733333333   
Si     0.125000000000     0.926650000000     0.237000000000   
O      0.000000000000     0.795625000000     0.359266666667   
O      0.000000000000     0.750000000000     0.578800000000   
O      0.079075000000     0.954075000000     0.583333333333   
Si     0.000000000000     0.750000000000     0.333333333333   
Si     0.051650000000     0.750000000000     0.596333333333   
O      0.045625000000     0.750000000000     0.640733333333   
O      0.000000000000     0.750000000000     0.421200000000   
O      0.204075000000     0.920925000000     0.416666666667   
Si     0.000000000000     0.948350000000     0.403666666667   
O      0.000000000000     0.954375000000     0.359266666667   
O      0.170925000000     0.795925000000     0.583333333333   
Si     0.198350000000     0.750000000000     0.596333333333   
O      0.204375000000     0.750000000000     0.640733333333   
O      0.045925000000     0.829075000000     0.416666666667   
Si     0.000000000000     0.801650000000     0.403666666667   
O      0.170925000000     0.954075000000     0.583333333333   
O      0.204075000000     0.829075000000     0.416666666667   
O      0.079075000000     0.795925000000     0.583333333333   
O      0.045925000000     0.920925000000     0.416666666667   
O      0.125000000000     0.920625000000     0.525933333333   
O      0.125000000000     0.875000000000     0.412133333333   
Si     0.125000000000     0.875000000000     0.500000000000   
Si     0.176650000000     0.875000000000     0.429666666667   
O      0.170625000000     0.875000000000     0.474066666667   
O      0.125000000000     0.875000000000     0.587866666667   
Si     0.125000000000     0.823350000000     0.570333333333   
O      0.125000000000     0.829375000000     0.525933333333   
Si     0.073350000000     0.875000000000     0.429666666667   
O      0.079375000000     0.875000000000     0.474066666667   
Si     0.125000000000     0.926650000000     0.570333333333   
O      0.000000000000     0.795625000000     0.692600000000   
O      0.000000000000     0.750000000000     0.912133333333   
O      0.079075000000     0.954075000000     0.916666666667   
Si     0.000000000000     0.750000000000     0.666666666667   
Si     0.051650000000     0.750000000000     0.929666666667   
O      0.045625000000     0.750000000000     0.974066666667   
O      0.000000000000     0.750000000000     0.754533333333   
O      0.204075000000     0.920925000000     0.750000000000   
Si     0.000000000000     0.948350000000     0.737000000000   
O      0.000000000000     0.954375000000     0.692600000000   
O      0.170925000000     0.795925000000     0.916666666667   
Si     0.198350000000     0.750000000000     0.929666666667   
O      0.204375000000     0.750000000000     0.974066666667   
O      0.045925000000     0.829075000000     0.750000000000   
Si     0.000000000000     0.801650000000     0.737000000000   
O      0.170925000000     0.954075000000     0.916666666667   
O      0.204075000000     0.829075000000     0.750000000000   
O      0.079075000000     0.795925000000     0.916666666667   
O      0.045925000000     0.920925000000     0.750000000000   
O      0.125000000000     0.920625000000     0.859266666667   
O      0.125000000000     0.875000000000     0.745466666667   
Si     0.125000000000     0.875000000000     0.833333333333   
Si     0.176650000000     0.875000000000     0.763000000000   
O      0.170625000000     0.875000000000     0.807400000000   
O      0.125000000000     0.875000000000     0.921200000000   
Si     0.125000000000     0.823350000000     0.903666666667   
O      0.125000000000     0.829375000000     0.859266666667   
Si     0.073350000000     0.875000000000     0.763000000000   
O      0.079375000000     0.875000000000     0.807400000000   
Si     0.125000000000     0.926650000000     0.903666666667   
O      0.250000000000     0.045625000000     0.025933333333   
O      0.250000000000     0.000000000000     0.245466666667   
O      0.329075000000     0.204075000000     0.250000000000   
Si     0.250000000000     0.000000000000     0.000000000000   
Si     0.301650000000     0.000000000000     0.263000000000   
O      0.295625000000     0.000000000000     0.307400000000   
O      0.250000000000     0.000000000000     0.087866666667   
O      0.454075000000     0.170925000000     0.083333333333   
Si     0.250000000000     0.198350000000     0.070333333333   
O      0.250000000000     0.204375000000     0.025933333333   
O      0.420925000000     0.045925000000     0.250000000000   
Si     0.448350000000     0.000000000000     0.263000000000   
O      0.454375000000     0.000000000000     0.307400000000   
O      0.295925000000     0.079075000000     0.083333333333   
Si     0.250000000000     0.051650000000     0.070333333333   
O      0.420925000000     0.204075000000     0.250000000000   
O      0.454075000000     0.079075000000     0.083333333333   
O      0.329075000000     0.045925000000     0.250000000000   
O      0.295925000000     0.170925000000     0.083333333333   
O      0.375000000000     0.170625000000     0.192600000000   
O      0.375000000000     0.125000000000     0.078800000000   
Si     0.375000000000     0.125000000000     0.166666666667   
Si     0.426650000000     0.125000000000     0.096333333333   
O      0.420625000000     0.125000000000     0.140733333333   
O      0.375000000000     0.125000000000     0.254533333333   
Si     0.375000000000     0.073350000000     0.237000000000   
O      0.375000000000     0.079375000000     0.192600000000   
Si     0.323350000000     0.125000000000     0.096333333333   
O      0.329375000000     0.125000000000     0.140733333333   
Si     0.375000000000     0.176650000000     0.237000000000   
O      0.250000000000     0.045625000000     0.359266666667   
O      0.250000000000     0.000000000000     0.578800000000   
O      0.329075000000     0.204075000000     0.583333333333   
Si     0.250000000000     0.000000000000     0.333333333333   
Si     0.301650000000     0.000000000000     0.596333333333   
O      0.295625000000     0.000000000000     0.640733333333   
O      0.250000000000     0.000000000000     0.421200000000   
O      0.454075000000     0.170925000000     0.416666666667   
Si     0.250000000000     0.198350000000     0.403666666667   
O      0.250000000000     0.204375000000     0.359266666667   
O      0.420925000000     0.045925000000     0.583333333333   
Si     0.448350000000     0.000000000000     0.596333333333   
O      0.454375000000     0.000000000000     0.640733333333   
O      0.295925000000     0.079075000000     0.416666666667   
Si     0.250000000000     0.051650000000     0.403666666667   
O      0.420925000000     0.204075000000     0.583333333333   
O      0.454075000000     0.079075000000     0.416666666667   
O      0.329075000000     0.045925000000     0.583333333333   
O      0.295925000000     0.170925000000     0.416666666667   
O      0.375000000000     0.170625000000     0.525933333333   
O      0.375000000000     0.125000000000     0.412133333333   
Si     0.375000000000     0.125000000000     0.500000000000   
Si     0.426650000000     0.125000000000     0.429666666667   
O      0.420625000000     0.125000000000     0.474066666667   
O      0.375000000000     0.125000000000     0.587866666667   
Si     0.375000000000     0.073350000000     0.570333333333   
O      0.375000000000     0.079375000000     0.525933333333   
Si     0.323350000000     0.125000000000     0.429666666667   
O      0.329375000000     0.125000000000     0.474066666667   
Si     0.375000000000     0.176650000000     0.570333333333   
O      0.250000000000     0.045625000000     0.692600000000   
O      0.250000000000     0.000000000000     0.912133333333   
O      0.329075000000     0.204075000000     0.916666666667   
Si     0.250000000000     0.000000000000     0.666666666667   
Si     0.301650000000     0.000000000000     0.929666666667   
O      0.295625000000     0.000000000000     0.974066666667   
O      0.250000000000     0.000000000000     0.754533333333   
O      0.454075000000     0.170925000000     0.750000000000   
Si     0.250000000000     0.198350000000     0.737000000000   
O      0.250000000000     0.204375000000     0.692600000000   
O      0.420925000000     0.045925000000     0.916666666667   
Si     0.448350000000     0.000000000000     0.929666666667   
O      0.454375000000     0.000000000000     0.974066666667   
O      0.295925000000     0.079075000000     0.750000000000   
Si     0.250000000000     0.051650000000     0.737000000000   
O      0.420925000000     0.204075000000     0.916666666667   
O      0.454075000000     0.079075000000     0.750000000000   
O      0.329075000000     0.045925000000     0.916666666667   
O      0.295925000000     0.170925000000     0.750000000000   
O      0.375000000000     0.170625000000     0.859266666667   
O      0.375000000000     0.125000000000     0.745466666667   
Si     0.375000000000     0.125000000000     0.833333333333   
Si     0.426650000000     0.125000000000     0.763000000000   
O      0.420625000000     0.125000000000     0.807400000000   
O      0.375000000000     0.125000000000     0.921200000000   
Si     0.375000000000     0.073350000000     0.903666666667   
O      0.375000000000     0.079375000000     0.859266666667   
Si     0.323350000000     0.125000000000     0.763000000000   
O      0.329375000000     0.125000000000     0.807400000000   
Si     0.375000000000     0.176650000000     0.903666666667   
O      0.250000000000     0.295625000000     0.025933333333   
O      0.250000000000     0.250000000000     0.245466666667   
O      0.329075000000     0.454075000000     0.250000000000   
Si     0.250000000000     0.250000000000     0.000000000000   
Si     0.301650000000     0.250000000000     0.263000000000   
O      0.295625000000     0.250000000000     0.307400000000   
O      0.250000000000     0.250000000000     0.087866666667   
O      0.454075000000     0.420925000000     0.083333333333   
Si     0.250000000000     0.448350000000     0.070333333333   
O      0.250000000000     0.454375000000     0.025933333333   
O      0.420925000000     0.295925000000     0.250000000000   
Si     0.448350000000     0.250000000000     0.263000000000   
O      0.454375000000     0.250000000000     0.307400000000   
O      0.295925000000     0.329075000000     0.083333333333   
Si     0.250000000000     0.301650000000     0.070333333333   
O      0.420925000000     0.454075000000     0.250000000000   
O      0.454075000000     0.329075000000     0.083333333333   
O      0.329075000000     0.295925000000     0.250000000000   
O      0.295925000000     0.420925000000     0.083333333333   
O      0.375000000000     0.420625000000     0.192600000000   
O      0.375000000000     0.375000000000     0.078800000000   
Si     0.375000000000     0.375000000000     0.166666666667   