%BLOCK LATTICE_CART
ang    # angstrom units
  12.937050000000    0.000000000000     0.000000000000   
 -6.468500000000     11.203770648759    0.000000000000   
  0.000000000000     0.000000000000     10.031200000000  
%ENDBLOCK LATTICE_CART

%BLOCK POSITIONS_FRAC
Si     0.000140000000     0.079213333333     0.115326666667   
Si     0.031113333333     0.142696666667     0.040440000000   
O      0.032976666667     0.065953333333     0.108066666667   
O      0.010890000000     0.117323333333     0.084750000000   
O      0.290226666667     0.043106666667     0.101933333333   
O      0.000000000000     0.090780000000     0.166666666667   
O      0.043646666667     0.188490000000     0.048670000000   
O      0.000000000000     0.125030000000     0.000000000000   
O      0.069936666667     0.139873333333     0.027966666667   
Si     0.254120000000     0.254260000000     0.115326666667   
Si     0.190636666667     0.221750000000     0.040440000000   
O      0.267380000000     0.300356666667     0.108066666667   
O      0.216010000000     0.226900000000     0.084750000000   
O      0.290226666667     0.247120000000     0.101933333333   
O      0.242553333333     0.242553333333     0.166666666667   
O      0.144843333333     0.188490000000     0.048670000000   
O      0.208303333333     0.208303333333     0.000000000000   
O      0.193460000000     0.263396666667     0.027966666667   
Si     0.079073333333     0.333193333333     0.115326666667   
Si     0.111583333333     0.302220000000     0.040440000000   
O      0.032976666667     0.300356666667     0.108066666667   
O      0.106433333333     0.322443333333     0.084750000000   
O      0.086213333333     0.043106666667     0.101933333333   
O      0.090780000000     0.000000000000     0.166666666667   
O      0.144843333333     0.289686666667     0.048670000000   
O      0.125030000000     0.000000000000     0.000000000000   
O      0.069936666667     0.263396666667     0.027966666667   
Si     0.079213333333     0.000140000000     0.218006666667   
Si     0.142696666667     0.031113333333     0.292893333333   
O      0.065953333333     0.032976666667     0.225266666667   
O      0.117323333333     0.010890000000     0.248583333333   
O      0.043106666667     0.290226666667     0.231400000000   
O      0.188490000000     0.043646666667     0.284663333333   
O      0.139873333333     0.069936666667     0.305366666667   
Si     0.333193333333     0.079073333333     0.218006666667   
Si     0.302220000000     0.111583333333     0.292893333333   
O      0.300356666667     0.032976666667     0.225266666667   
O      0.322443333333     0.106433333333     0.248583333333   
O      0.043106666667     0.086213333333     0.231400000000   
O      0.289686666667     0.144843333333     0.284663333333   
O      0.263396666667     0.069936666667     0.305366666667   
Si     0.254260000000     0.254120000000     0.218006666667   
Si     0.221750000000     0.190636666667     0.292893333333   
O      0.300356666667     0.267380000000     0.225266666667   
O      0.226900000000     0.216010000000     0.248583333333   
O      0.247120000000     0.290226666667     0.231400000000   
O      0.188490000000     0.144843333333     0.284663333333   
O      0.263396666667     0.193460000000     0.305366666667   
Si     0.333193333333     0.254120000000     0.218006666667   
Si     0.302220000000     0.190636666667     0.292893333333   
O      0.322443333333     0.216010000000     0.248583333333   
O      0.000000000000     0.242553333333     0.166666666667   
O      0.000000000000     0.208303333333     0.000000000000   
Si     0.079213333333     0.079073333333     0.218006666667   
Si     0.142696666667     0.111583333333     0.292893333333   
O      0.117323333333     0.106433333333     0.248583333333   
O      0.090780000000     0.090780000000     0.166666666667   
O      0.125030000000     0.125030000000     0.000000000000   
Si     0.254260000000     0.000140000000     0.218006666667   
Si     0.221750000000     0.031113333333     0.292893333333   
O      0.226900000000     0.010890000000     0.248583333333   
O      0.242553333333     0.000000000000     0.166666666667   
O      0.208303333333     0.000000000000     0.000000000000   
Si     0.254120000000     0.333193333333     0.115326666667   
Si     0.190636666667     0.302220000000     0.040440000000   
O      0.216010000000     0.322443333333     0.084750000000   
Si     0.000140000000     0.254260000000     0.115326666667   
Si     0.031113333333     0.221750000000     0.040440000000   
O      0.010890000000     0.226900000000     0.084750000000   
Si     0.079073333333     0.079213333333     0.115326666667   
Si     0.111583333333     0.142696666667     0.040440000000   
O      0.106433333333     0.117323333333     0.084750000000   
Si     0.000140000000     0.079213333333     0.448660000000   
Si     0.031113333333     0.142696666667     0.373773333333   
O      0.032976666667     0.065953333333     0.441400000000   
O      0.010890000000     0.117323333333     0.418083333333   
O      0.290226666667     0.043106666667     0.435266666667   
O      0.000000000000     0.090780000000     0.500000000000   
O      0.043646666667     0.188490000000     0.382003333333   
O      0.000000000000     0.125030000000     0.333333333333   
O      0.069936666667     0.139873333333     0.361300000000   
Si     0.254120000000     0.254260000000     0.448660000000   
Si     0.190636666667     0.221750000000     0.373773333333   
O      0.267380000000     0.300356666667     0.441400000000   
O      0.216010000000     0.226900000000     0.418083333333   
O      0.290226666667     0.247120000000     0.435266666667   
O      0.242553333333     0.242553333333     0.500000000000   
O      0.144843333333     0.188490000000     0.382003333333   
O      0.208303333333     0.208303333333     0.333333333333   
O      0.193460000000     0.263396666667     0.361300000000   
Si     0.079073333333     0.333193333333     0.448660000000   
Si     0.111583333333     0.302220000000     0.373773333333   
O      0.032976666667     0.300356666667     0.441400000000   
O      0.106433333333     0.322443333333     0.418083333333   
O      0.086213333333     0.043106666667     0.435266666667   
O      0.090780000000     0.000000000000     0.500000000000   
O      0.144843333333     0.289686666667     0.382003333333   
O      0.125030000000     0.000000000000     0.333333333333   
O      0.069936666667     0.263396666667     0.361300000000   
Si     0.079213333333     0.000140000000     0.551340000000   
Si     0.142696666667     0.031113333333     0.626226666667   
O      0.065953333333     0.032976666667     0.558600000000   
O      0.117323333333     0.010890000000     0.581916666667   
O      0.043106666667     0.290226666667     0.564733333333   
O      0.188490000000     0.043646666667     0.617996666667   
O      0.139873333333     0.069936666667     0.638700000000   
Si     0.333193333333     0.079073333333     0.551340000000   
Si     0.302220000000     0.111583333333     0.626226666667   
O      0.300356666667     0.032976666667     0.558600000000   
O      0.322443333333     0.106433333333     0.581916666667   
O      0.043106666667     0.086213333333     0.564733333333   
O      0.289686666667     0.144843333333     0.617996666667   
O      0.263396666667     0.069936666667     0.638700000000   
Si     0.254260000000     0.254120000000     0.551340000000   
Si     0.221750000000     0.190636666667     0.626226666667   
O      0.300356666667     0.267380000000     0.558600000000   
O      0.226900000000     0.216010000000     0.581916666667   
O      0.247120000000     0.290226666667     0.564733333333   
O      0.188490000000     0.144843333333     0.617996666667   
O      0.263396666667     0.193460000000     0.638700000000   
Si     0.333193333333     0.254120000000     0.551340000000   
Si     0.302220000000     0.190636666667     0.626226666667   
O      0.322443333333     0.216010000000     0.581916666667   
O      0.000000000000     0.242553333333     0.500000000000   
O      0.000000000000     0.208303333333     0.333333333333   
Si     0.079213333333     0.079073333333     0.551340000000   
Si     0.142696666667     0.111583333333     0.626226666667   
O      0.117323333333     0.106433333333     0.581916666667   
O      0.090780000000     0.090780000000     0.500000000000   
O      0.125030000000     0.125030000000     0.333333333333   
Si     0.254260000000     0.000140000000     0.551340000000   
Si     0.221750000000     0.031113333333     0.626226666667   
O      0.226900000000     0.010890000000     0.581916666667   
O      0.242553333333     0.000000000000     0.500000000000   
O      0.208303333333     0.000000000000     0.333333333333   
Si     0.254120000000     0.333193333333     0.448660000000   
Si     0.190636666667     0.302220000000     0.373773333333   
O      0.216010000000     0.322443333333     0.418083333333   
Si     0.000140000000     0.254260000000     0.448660000000   
Si     0.031113333333     0.221750000000     0.373773333333   
O      0.010890000000     0.226900000000     0.418083333333   
Si     0.079073333333     0.079213333333     0.448660000000   
Si     0.111583333333     0.142696666667     0.373773333333   
O      0.106433333333     0.117323333333     0.418083333333   
Si     0.000140000000     0.079213333333     0.781993333333   
Si     0.031113333333     0.142696666667     0.707106666667   
O      0.032976666667     0.065953333333     0.774733333333   
O      0.010890000000     0.117323333333     0.751416666667   
O      0.290226666667     0.043106666667     0.768600000000   
O      0.000000000000     0.090780000000     0.833333333333   
O      0.043646666667     0.188490000000     0.715336666667   
O      0.000000000000     0.125030000000     0.666666666667   
O      0.069936666667     0.139873333333     0.694633333333   
Si     0.254120000000     0.254260000000     0.781993333333   
Si     0.190636666667     0.221750000000     0.707106666667   
O      0.267380000000     0.300356666667     0.774733333333   
O      0.216010000000     0.226900000000     0.751416666667   
O      0.290226666667     0.247120000000     0.768600000000   
O      0.242553333333     0.242553333333     0.833333333333   
O      0.144843333333     0.188490000000     0.715336666667   
O      0.208303333333     0.208303333333     0.666666666667   
O      0.193460000000     0.263396666667     0.694633333333   
Si     0.079073333333     0.333193333333     0.781993333333   
Si     0.111583333333     0.302220000000     0.707106666667   
O      0.032976666667     0.300356666667     0.774733333333   
O      0.106433333333     0.322443333333     0.751416666667   
O      0.086213333333     0.043106666667     0.768600000000   
O      0.090780000000     0.000000000000     0.833333333333   
O      0.144843333333     0.289686666667     0.715336666667   
O      0.125030000000     0.000000000000     0.666666666667   
O      0.069936666667     0.263396666667     0.694633333333   
Si     0.079213333333     0.000140000000     0.884673333333   
Si     0.142696666667     0.031113333333     0.959560000000   
O      0.065953333333     0.032976666667     0.891933333333   
O      0.117323333333     0.010890000000     0.915250000000   
O      0.043106666667     0.290226666667     0.898066666667   
O      0.188490000000     0.043646666667     0.951330000000   
O      0.139873333333     0.069936666667     0.972033333333   
Si     0.333193333333     0.079073333333     0.884673333333   
Si     0.302220000000     0.111583333333     0.959560000000   
O      0.300356666667     0.032976666667     0.891933333333   
O      0.322443333333     0.106433333333     0.915250000000   
O      0.043106666667     0.086213333333     0.898066666667   
O      0.289686666667     0.144843333333     0.951330000000   
O      0.263396666667     0.069936666667     0.972033333333   
Si     0.254260000000     0.254120000000     0.884673333333   
Si     0.221750000000     0.190636666667     0.959560000000   
O      0.300356666667     0.267380000000     0.891933333333   
O      0.226900000000     0.216010000000     0.915250000000   
O      0.247120000000     0.290226666667     0.898066666667   
O      0.188490000000     0.144843333333     0.951330000000   
O      0.263396666667     0.193460000000     0.972033333333   
Si     0.333193333333     0.254120000000     0.884673333333   
Si     0.302220000000     0.190636666667     0.959560000000   
O      0.322443333333     0.216010000000     0.915250000000   
O      0.000000000000     0.242553333333     0.833333333333   
O      0.000000000000     0.208303333333     0.666666666667   
Si     0.079213333333     0.079073333333     0.884673333333   
Si     0.142696666667     0.111583333333     0.959560000000   
O      0.117323333333     0.106433333333     0.915250000000   
O      0.090780000000     0.090780000000     0.833333333333   
O      0.125030000000     0.125030000000     0.666666666667   
Si     0.254260000000     0.000140000000     0.884673333333   
Si     0.221750000000     0.031113333333     0.959560000000   
O      0.226900000000     0.010890000000     0.915250000000   
O      0.242553333333     0.000000000000     0.833333333333   
O      0.208303333333     0.000000000000     0.666666666667   
Si     0.254120000000     0.333193333333     0.781993333333   
Si     0.190636666667     0.302220000000     0.707106666667   
O      0.216010000000     0.322443333333     0.751416666667   
Si     0.000140000000     0.254260000000     0.781993333333   
Si     0.031113333333     0.221750000000     0.707106666667   
O      0.010890000000     0.226900000000     0.751416666667   
Si     0.079073333333     0.079213333333     0.781993333333   
Si     0.111583333333     0.142696666667     0.707106666667   
O      0.106433333333     0.117323333333     0.751416666667   
Si     0.000140000000     0.412546666667     0.115326666667   
Si     0.031113333333     0.476030000000     0.040440000000   
O      0.032976666667     0.399286666667     0.108066666667   
O      0.010890000000     0.450656666667     0.084750000000   
O      0.290226666667     0.376440000000     0.101933333333   
O      0.000000000000     0.424113333333     0.166666666667   
O      0.043646666667     0.521823333333     0.048670000000   
O      0.000000000000     0.458363333333     0.000000000000   
O      0.069936666667     0.473206666667     0.027966666667   
Si     0.254120000000     0.587593333333     0.115326666667   
Si     0.190636666667     0.555083333333     0.040440000000   
O      0.267380000000     0.633690000000     0.108066666667   
O      0.216010000000     0.560233333333     0.084750000000   
O      0.290226666667     0.580453333333     0.101933333333   
O      0.242553333333     0.575886666667     0.166666666667   
O      0.144843333333     0.521823333333     0.048670000000   
O      0.208303333333     0.541636666667     0.000000000000   
O      0.193460000000     0.596730000000     0.027966666667   
Si     0.079073333333     0.666526666667     0.115326666667   
Si     0.111583333333     0.635553333333     0.040440000000   
O      0.032976666667     0.633690000000     0.108066666667   
O      0.106433333333     0.655776666667     0.084750000000   
O      0.086213333333     0.376440000000     0.101933333333   
O      0.090780000000     0.333333333333     0.166666666667   
O      0.144843333333     0.623020000000     0.048670000000   
O      0.125030000000     0.333333333333     0.000000000000   
O      0.069936666667     0.596730000000     0.027966666667   
Si     0.079213333333     0.333473333333     0.218006666667   
Si     0.142696666667     0.364446666667     0.292893333333   
O      0.065953333333     0.366310000000     0.225266666667   
O      0.117323333333     0.344223333333     0.248583333333   
O      0.043106666667     0.623560000000     0.231400000000   
O      0.188490000000     0.376980000000     0.284663333333   
O      0.139873333333     0.403270000000     0.305366666667   
Si     0.333193333333     0.412406666667     0.218006666667   
Si     0.302220000000     0.444916666667     0.292893333333   
O      0.300356666667     0.366310000000     0.225266666667   
O      0.322443333333     0.439766666667     0.248583333333   
O      0.043106666667     0.419546666667     0.231400000000   
O      0.289686666667     0.478176666667     0.284663333333   
O      0.263396666667     0.403270000000     0.305366666667   
Si     0.254260000000     0.587453333333     0.218006666667   
Si     0.221750000000     0.523970000000     0.292893333333   
O      0.300356666667     0.600713333333     0.225266666667   
O      0.226900000000     0.549343333333     0.248583333333   
O      0.247120000000     0.623560000000     0.231400000000   
O      0.188490000000     0.478176666667     0.284663333333   
O      0.263396666667     0.526793333333     0.305366666667   
Si     0.333193333333     0.587453333333     0.218006666667   
Si     0.302220000000     0.523970000000     0.292893333333   
O      0.322443333333     0.549343333333     0.248583333333   
O      0.000000000000     0.575886666667     0.166666666667   
O      0.000000000000     0.541636666667     0.000000000000   
Si     0.079213333333     0.412406666667     0.218006666667   
Si     0.142696666667     0.444916666667     0.292893333333   
O      0.117323333333     0.439766666667     0.248583333333   
O      0.090780000000     0.424113333333     0.166666666667   
O      0.125030000000     0.458363333333     0.000000000000   
Si     0.254260000000     0.333473333333     0.218006666667   
Si     0.221750000000     0.364446666667     0.292893333333   
O      0.226900000000     0.344223333333     0.248583333333   
O      0.242553333333     0.333333333333     0.166666666667   
O      0.208303333333     0.333333333333     0.000000000000   
Si     0.254120000000     0.666526666667     0.115326666667   
Si     0.190636666667     0.635553333333     0.040440000000   
O      0.216010000000     0.655776666667     0.084750000000   
Si     0.000140000000     0.587593333333     0.115326666667   
Si     0.031113333333     0.555083333333     0.040440000000   
O      0.010890000000     0.560233333333     0.084750000000   
Si     0.079073333333     0.412546666667     0.115326666667   
Si     0.111583333333     0.476030000000     0.040440000000   
O      0.106433333333     0.450656666667     0.084750000000   
Si     0.000140000000     0.412546666667     0.448660000000   
Si     0.031113333333     0.476030000000     0.373773333333   
O      0.032976666667     0.399286666667     0.441400000000   
O      0.010890000000     0.450656666667     0.418083333333   
O      0.290226666667     0.376440000000     0.435266666667   
O      0.000000000000     0.424113333333     0.500000000000   
O      0.043646666667     0.521823333333     0.382003333333   
O      0.000000000000     0.458363333333     0.333333333333   
O      0.069936666667     0.473206666667     0.361300000000   
Si     0.254120000000     0.587593333333     0.448660000000   
Si     0.190636666667     0.555083333333     0.373773333333   
O      0.267380000000     0.633690000000     0.441400000000   
O      0.216010000000     0.560233333333     0.418083333333   
O      0.290226666667     0.580453333333     0.435266666667   
O      0.242553333333     0.575886666667     0.500000000000   
O      0.144843333333     0.521823333333     0.382003333333   
O      0.208303333333     0.541636666667     0.333333333333   
O      0.193460000000     0.596730000000     0.361300000000   
Si     0.079073333333     0.666526666667     0.448660000000   
Si     0.111583333333     0.635553333333     0.373773333333   
O      0.032976666667     0.633690000000     0.441400000000   
O      0.106433333333     0.655776666667     0.418083333333   
O      0.086213333333     0.376440000000     0.435266666667   
O      0.090780000000     0.333333333333     0.500000000000   
O      0.144843333333     0.623020000000     0.382003333333   
O      0.125030000000     0.333333333333     0.333333333333   
O      0.069936666667     0.596730000000     0.361300000000   
Si     0.079213333333     0.333473333333     0.551340000000   
Si     0.142696666667     0.364446666667     0.626226666667   
O      0.065953333333     0.366310000000     0.558600000000   
O      0.117323333333     0.344223333333     0.581916666667   
O      0.043106666667     0.623560000000     0.564733333333   
O      0.188490000000     0.376980000000     0.617996666667   
O      0.139873333333     0.403270000000     0.638700000000   
Si     0.333193333333     0.412406666667     0.551340000000   
Si     0.302220000000     0.444916666667     0.626226666667   
O      0.300356666667     0.366310000000     0.558600000000   
O      0.322443333333     0.439766666667     0.581916666667   
O      0.043106666667     0.419546666667     0.564733333333   
O      0.289686666667     0.478176666667     0.617996666667   
O      0.263396666667     0.403270000000     0.638700000000   
Si     0.254260000000     0.587453333333     0.551340000000   
Si     0.221750000000     0.523970000000     0.626226666667   
O      0.300356666667     0.600713333333     0.558600000000   
O      0.226900000000     0.549343333333     0.581916666667   
O      0.247120000000     0.623560000000     0.564733333333   
O      0.188490000000     0.478176666667     0.617996666667   
O      0.263396666667     0.526793333333     0.638700000000   
Si     0.333193333333     0.587453333333     0.551340000000   
Si     0.302220000000     0.523970000000     0.626226666667   
O      0.322443333333     0.549343333333     0.581916666667   
O      0.000000000000     0.575886666667     0.500000000000   
O      0.000000000000     0.541636666667     0.333333333333   
Si     0.079213333333     0.412406666667     0.551340000000   
Si     0.142696666667     0.444916666667     0.626226666667   
O      0.117323333333     0.439766666667     0.581916666667   
O      0.090780000000     0.424113333333     0.500000000000   
O      0.125030000000     0.458363333333     0.333333333333   
Si     0.254260000000     0.333473333333     0.551340000000   
Si     0.221750000000     0.364446666667     0.626226666667   
O      0.226900000000     0.344223333333     0.581916666667   
O      0.242553333333     0.333333333333     0.500000000000   
O      0.208303333333     0.333333333333     0.333333333333   
Si     0.254120000000     0.666526666667     0.448660000000   
Si     0.190636666667     0.635553333333     0.373773333333   
O      0.216010000000     0.655776666667     0.418083333333   
Si     0.000140000000     0.587593333333     0.448660000000   
Si     0.031113333333     0.555083333333     0.373773333333   
O      0.010890000000     0.560233333333     0.418083333333   
Si     0.079073333333     0.412546666667     0.448660000000   
Si     0.111583333333     0.476030000000     0.373773333333   
O      0.106433333333     0.450656666667     0.418083333333   
Si     0.000140000000     0.412546666667     0.781993333333   
Si     0.031113333333     0.476030000000     0.707106666667   
O      0.032976666667     0.399286666667     0.774733333333   
O      0.010890000000     0.450656666667     0.751416666667   
O      0.290226666667     0.376440000000     0.768600000000   
O      0.000000000000     0.424113333333     0.833333333333   
O      0.043646666667     0.521823333333     0.715336666667   
O      0.000000000000     0.458363333333     0.666666666667   
O      0.069936666667     0.473206666667     0.694633333333   
Si     0.254120000000     0.587593333333     0.781993333333   
Si     0.190636666667     0.555083333333     0.707106666667   
O      0.267380000000     0.633690000000     0.774733333333   
O      0.216010000000     0.560233333333     0.751416666667   
O      0.290226666667     0.580453333333     0.768600000000   
O      0.242553333333     0.575886666667     0.833333333333   
O      0.144843333333     0.521823333333     0.715336666667   
O      0.208303333333     0.541636666667     0.666666666667   
O      0.193460000000     0.596730000000     0.694633333333   
Si     0.079073333333     0.666526666667     0.781993333333   
Si     0.111583333333     0.635553333333     0.707106666667   
O      0.032976666667     0.633690000000     0.774733333333   
O      0.106433333333     0.655776666667     0.751416666667   
O      0.086213333333     0.376440000000     0.768600000000   
O      0.090780000000     0.333333333333     0.833333333333   
O      0.144843333333     0.623020000000     0.715336666667   
O      0.125030000000     0.333333333333     0.666666666667   
O      0.069936666667     0.596730000000     0.694633333333   
Si     0.079213333333     0.333473333333     0.884673333333   
Si     0.142696666667     0.364446666667     0.959560000000   
O      0.065953333333     0.366310000000     0.891933333333   
O      0.117323333333     0.344223333333     0.915250000000   
O      0.043106666667     0.623560000000     0.898066666667   
O      0.188490000000     0.376980000000     0.951330000000   
O      0.139873333333     0.403270000000     0.972033333333   
Si     0.333193333333     0.412406666667     0.884673333333   
Si     0.302220000000     0.444916666667     0.959560000000   
O      0.300356666667     0.366310000000     0.891933333333   
O      0.322443333333     0.439766666667     0.915250000000   
O      0.043106666667     0.419546666667     0.898066666667   
O      0.289686666667     0.478176666667     0.951330000000   
O      0.263396666667     0.403270000000     0.972033333333   
Si     0.254260000000     0.587453333333     0.884673333333   
Si     0.221750000000     0.523970000000     0.959560000000   
O      0.300356666667     0.600713333333     0.891933333333   
O      0.226900000000     0.549343333333     0.915250000000   
O      0.247120000000     0.623560000000     0.898066666667   
O      0.188490000000     0.478176666667     0.951330000000   
O      0.263396666667     0.526793333333     0.972033333333   
Si     0.333193333333     0.587453333333     0.884673333333   
Si     0.302220000000     0.523970000000     0.959560000000   
O      0.322443333333     0.549343333333     0.915250000000   
O      0.000000000000     0.575886666667     0.833333333333   
O      0.000000000000     0.541636666667     0.666666666667   
Si     0.079213333333     0.412406666667     0.884673333333   
Si     0.142696666667     0.444916666667     0.959560000000   
O      0.117323333333     0.439766666667     0.915250000000   
O      0.090780000000     0.424113333333     0.833333333333   
O      0.125030000000     0.458363333333     0.666666666667   
Si     0.254260000000     0.333473333333     0.884673333333   
Si     0.221750000000     0.364446666667     0.959560000000   
O      0.226900000000     0.344223333333     0.915250000000   
O      0.242553333333     0.333333333333     0.833333333333   
O      0.208303333333     0.333333333333     0.666666666667   
Si     0.254120000000     0.666526666667     0.781993333333   
Si     0.190636666667     0.635553333333     0.707106666667   
O      0.216010000000     0.655776666667     0.751416666667   
Si     0.000140000000     0.587593333333     0.781993333333   
Si     0.031113333333     0.555083333333     0.707106666667   
O      0.010890000000     0.560233333333     0.751416666667   
Si     0.079073333333     0.412546666667     0.781993333333   
Si     0.111583333333     0.476030000000     0.707106666667   
O      0.106433333333     0.450656666667     0.751416666667   
Si     0.000140000000     0.745880000000     0.115326666667   
Si     0.031113333333     0.809363333333     0.040440000000   
O      0.032976666667     0.732620000000     0.108066666667   
O      0.010890000000     0.783990000000     0.084750000000   
O      0.290226666667     0.709773333333     0.101933333333   
O      0.000000000000     0.757446666667     0.166666666667   
O      0.043646666667     0.855156666667     0.048670000000   
O      0.000000000000     0.791696666667     0.000000000000   
O      0.069936666667     0.806540000000     0.027966666667   
Si     0.254120000000     0.920926666667     0.115326666667   
Si     0.190636666667     0.888416666667     0.040440000000   
O      0.267380000000     0.967023333333     0.108066666667   
O      0.216010000000     0.893566666667     0.084750000000   
O      0.290226666667     0.913786666667     0.101933333333   
O      0.242553333333     0.909220000000     0.166666666667   
O      0.144843333333     0.855156666667     0.048670000000   
O      0.208303333333     0.874970000000     0.000000000000   
O      0.193460000000     0.930063333333     0.027966666667   
Si     0.079073333333     0.999860000000     0.115326666667   
Si     0.111583333333     0.968886666667     0.040440000000   
O      0.032976666667     0.967023333333     0.108066666667   
O      0.106433333333     0.989110000000     0.084750000000   
O      0.086213333333     0.709773333333     0.101933333333   
O      0.090780000000     0.666666666667     0.166666666667   
O      0.144843333333     0.956353333333     0.048670000000   
O      0.125030000000     0.666666666667     0.000000000000   
O      0.069936666667     0.930063333333     0.027966666667   
Si     0.079213333333     0.666806666667     0.218006666667   
Si     0.142696666667     0.697780000000     0.292893333333   
O      0.065953333333     0.699643333333     0.225266666667   
O      0.117323333333     0.677556666667     0.248583333333   
O      0.043106666667     0.956893333333     0.231400000000   
O      0.188490000000     0.710313333333     0.284663333333   
O      0.139873333333     0.736603333333     0.305366666667   
Si     0.333193333333     0.745740000000     0.218006666667   
Si     0.302220000000     0.778250000000     0.292893333333   
O      0.300356666667     0.699643333333     0.225266666667   
O      0.322443333333     0.773100000000     0.248583333333   
O      0.043106666667     0.752880000000     0.231400000000   
O      0.289686666667     0.811510000000     0.284663333333   