%BLOCK LATTICE_CART
ang    # angstrom units
  22.684000000000    0.000000000000     0.000000000000   
  0.000000000000     13.373000000000    0.000000000000   
  4.400462510511     0.000000000000     11.756433927581  
%ENDBLOCK LATTICE_CART

%BLOCK POSITIONS_FRAC
O      0.000000000000     0.075300000000     0.166666666667   
O      0.039800000000     0.000000000000     0.149500000000   
O      0.059800000000     0.090900000000     0.127433333333   
O      0.042300000000     0.067050000000     0.199466666667   
O      0.110950000000     0.064600000000     0.070966666667   
O      0.090250000000     0.156950000000     0.075900000000   
O      0.058850000000     0.084500000000     0.058166666667   
O      0.058850000000     0.093350000000     0.257166666667   
O      0.000100000000     0.069400000000     0.268366666667   
O      0.043900000000     0.000000000000     0.249833333333   
O      0.153500000000     0.000000000000     0.031366666667   
O      0.134750000000     0.072200000000     0.330100000000   
O      0.169650000000     0.093150000000     0.037733333333   
O      0.146400000000     0.000000000000     0.279666666667   
O      0.100800000000     0.064000000000     0.286400000000   
O      0.042500000000     0.000000000000     0.034500000000   
O      0.042850000000     0.083550000000     0.330933333333   
Si     0.035450000000     0.058250000000     0.160833333333   
Si     0.079900000000     0.099150000000     0.083200000000   
Si     0.036250000000     0.057450000000     0.243666666667   
Si     0.142250000000     0.057400000000     0.034200000000   
Si     0.135400000000     0.057300000000     0.288433333333   
Si     0.035950000000     0.059200000000     0.038866666667   
Si     0.070750000000     0.099500000000     0.292533333333   
O      0.460200000000     0.000000000000     0.183833333333   
O      0.440200000000     0.090900000000     0.205900000000   
O      0.457700000000     0.067050000000     0.133866666667   
O      0.389050000000     0.064600000000     0.262366666667   
O      0.409750000000     0.156950000000     0.257433333333   
O      0.441150000000     0.084500000000     0.275166666667   
O      0.441150000000     0.093350000000     0.076166666667   
O      0.499900000000     0.069400000000     0.064966666667   
O      0.456100000000     0.000000000000     0.083500000000   
O      0.346500000000     0.000000000000     0.301966666667   
O      0.365250000000     0.072200000000     0.003233333333   
O      0.330350000000     0.093150000000     0.295600000000   
O      0.353600000000     0.000000000000     0.053666666667   
O      0.399200000000     0.064000000000     0.046933333333   
O      0.457500000000     0.000000000000     0.298833333333   
O      0.457150000000     0.083550000000     0.002400000000   
Si     0.464550000000     0.058250000000     0.172500000000   
Si     0.420100000000     0.099150000000     0.250133333333   
Si     0.463750000000     0.057450000000     0.089666666667   
Si     0.357750000000     0.057400000000     0.299133333333   
Si     0.364600000000     0.057300000000     0.044900000000   
Si     0.464050000000     0.059200000000     0.294466666667   
Si     0.429250000000     0.099500000000     0.040800000000   
O      0.000000000000     0.424700000000     0.166666666667   
O      0.440200000000     0.409100000000     0.205900000000   
O      0.457700000000     0.432950000000     0.133866666667   
O      0.389050000000     0.435400000000     0.262366666667   
O      0.409750000000     0.343050000000     0.257433333333   
O      0.441150000000     0.415500000000     0.275166666667   
O      0.441150000000     0.406650000000     0.076166666667   
O      0.499900000000     0.430600000000     0.064966666667   
O      0.365250000000     0.427800000000     0.003233333333   
O      0.330350000000     0.406850000000     0.295600000000   
O      0.399200000000     0.436000000000     0.046933333333   
O      0.457150000000     0.416450000000     0.002400000000   
Si     0.464550000000     0.441750000000     0.172500000000   
Si     0.420100000000     0.400850000000     0.250133333333   
Si     0.463750000000     0.442550000000     0.089666666667   
Si     0.357750000000     0.442600000000     0.299133333333   
Si     0.364600000000     0.442700000000     0.044900000000   
Si     0.464050000000     0.440800000000     0.294466666667   
Si     0.429250000000     0.400500000000     0.040800000000   
O      0.059800000000     0.409100000000     0.127433333333   
O      0.042300000000     0.432950000000     0.199466666667   
O      0.110950000000     0.435400000000     0.070966666667   
O      0.090250000000     0.343050000000     0.075900000000   
O      0.058850000000     0.415500000000     0.058166666667   
O      0.058850000000     0.406650000000     0.257166666667   
O      0.000100000000     0.430600000000     0.268366666667   
O      0.134750000000     0.427800000000     0.330100000000   
O      0.169650000000     0.406850000000     0.037733333333   
O      0.100800000000     0.436000000000     0.286400000000   
O      0.042850000000     0.416450000000     0.330933333333   
Si     0.035450000000     0.441750000000     0.160833333333   
Si     0.079900000000     0.400850000000     0.083200000000   
Si     0.036250000000     0.442550000000     0.243666666667   
Si     0.142250000000     0.442600000000     0.034200000000   
Si     0.135400000000     0.442700000000     0.288433333333   
Si     0.035950000000     0.440800000000     0.038866666667   
Si     0.070750000000     0.400500000000     0.292533333333   
O      0.250000000000     0.325300000000     0.166666666667   
O      0.289800000000     0.250000000000     0.149500000000   
O      0.309800000000     0.340900000000     0.127433333333   
O      0.292300000000     0.317050000000     0.199466666667   
O      0.360950000000     0.314600000000     0.070966666667   
O      0.340250000000     0.406950000000     0.075900000000   
O      0.308850000000     0.334500000000     0.058166666667   
O      0.308850000000     0.343350000000     0.257166666667   
O      0.250100000000     0.319400000000     0.268366666667   
O      0.293900000000     0.250000000000     0.249833333333   
O      0.403500000000     0.250000000000     0.031366666667   
O      0.384750000000     0.322200000000     0.330100000000   
O      0.419650000000     0.343150000000     0.037733333333   
O      0.396400000000     0.250000000000     0.279666666667   
O      0.350800000000     0.314000000000     0.286400000000   
O      0.292500000000     0.250000000000     0.034500000000   
O      0.292850000000     0.333550000000     0.330933333333   
Si     0.285450000000     0.308250000000     0.160833333333   
Si     0.329900000000     0.349150000000     0.083200000000   
Si     0.286250000000     0.307450000000     0.243666666667   
Si     0.392250000000     0.307400000000     0.034200000000   
Si     0.385400000000     0.307300000000     0.288433333333   
Si     0.285950000000     0.309200000000     0.038866666667   
Si     0.320750000000     0.349500000000     0.292533333333   
O      0.210200000000     0.250000000000     0.183833333333   
O      0.190200000000     0.340900000000     0.205900000000   
O      0.207700000000     0.317050000000     0.133866666667   
O      0.139050000000     0.314600000000     0.262366666667   
O      0.159750000000     0.406950000000     0.257433333333   
O      0.191150000000     0.334500000000     0.275166666667   
O      0.191150000000     0.343350000000     0.076166666667   
O      0.249900000000     0.319400000000     0.064966666667   
O      0.206100000000     0.250000000000     0.083500000000   
O      0.096500000000     0.250000000000     0.301966666667   
O      0.115250000000     0.322200000000     0.003233333333   
O      0.080350000000     0.343150000000     0.295600000000   
O      0.103600000000     0.250000000000     0.053666666667   
O      0.149200000000     0.314000000000     0.046933333333   
O      0.207500000000     0.250000000000     0.298833333333   
O      0.207150000000     0.333550000000     0.002400000000   
Si     0.214550000000     0.308250000000     0.172500000000   
Si     0.170100000000     0.349150000000     0.250133333333   
Si     0.213750000000     0.307450000000     0.089666666667   
Si     0.107750000000     0.307400000000     0.299133333333   
Si     0.114600000000     0.307300000000     0.044900000000   
Si     0.214050000000     0.309200000000     0.294466666667   
Si     0.179250000000     0.349500000000     0.040800000000   
O      0.250000000000     0.174700000000     0.166666666667   
O      0.190200000000     0.159100000000     0.205900000000   
O      0.207700000000     0.182950000000     0.133866666667   
O      0.139050000000     0.185400000000     0.262366666667   
O      0.159750000000     0.093050000000     0.257433333333   
O      0.191150000000     0.165500000000     0.275166666667   
O      0.191150000000     0.156650000000     0.076166666667   
O      0.249900000000     0.180600000000     0.064966666667   
O      0.115250000000     0.177800000000     0.003233333333   
O      0.080350000000     0.156850000000     0.295600000000   
O      0.149200000000     0.186000000000     0.046933333333   
O      0.207150000000     0.166450000000     0.002400000000   
Si     0.214550000000     0.191750000000     0.172500000000   
Si     0.170100000000     0.150850000000     0.250133333333   
Si     0.213750000000     0.192550000000     0.089666666667   
Si     0.107750000000     0.192600000000     0.299133333333   
Si     0.114600000000     0.192700000000     0.044900000000   
Si     0.214050000000     0.190800000000     0.294466666667   
Si     0.179250000000     0.150500000000     0.040800000000   
O      0.309800000000     0.159100000000     0.127433333333   
O      0.292300000000     0.182950000000     0.199466666667   
O      0.360950000000     0.185400000000     0.070966666667   
O      0.340250000000     0.093050000000     0.075900000000   
O      0.308850000000     0.165500000000     0.058166666667   
O      0.308850000000     0.156650000000     0.257166666667   
O      0.250100000000     0.180600000000     0.268366666667   
O      0.384750000000     0.177800000000     0.330100000000   
O      0.419650000000     0.156850000000     0.037733333333   
O      0.350800000000     0.186000000000     0.286400000000   
O      0.292850000000     0.166450000000     0.330933333333   
Si     0.285450000000     0.191750000000     0.160833333333   
Si     0.329900000000     0.150850000000     0.083200000000   
Si     0.286250000000     0.192550000000     0.243666666667   
Si     0.392250000000     0.192600000000     0.034200000000   
Si     0.385400000000     0.192700000000     0.288433333333   
Si     0.285950000000     0.190800000000     0.038866666667   
Si     0.320750000000     0.150500000000     0.292533333333   
O      0.000000000000     0.075300000000     0.500000000000   
O      0.039800000000     0.000000000000     0.482833333333   
O      0.059800000000     0.090900000000     0.460766666667   
O      0.042300000000     0.067050000000     0.532800000000   
O      0.110950000000     0.064600000000     0.404300000000   
O      0.090250000000     0.156950000000     0.409233333333   
O      0.058850000000     0.084500000000     0.391500000000   
O      0.058850000000     0.093350000000     0.590500000000   
O      0.000100000000     0.069400000000     0.601700000000   
O      0.043900000000     0.000000000000     0.583166666667   
O      0.153500000000     0.000000000000     0.364700000000   
O      0.134750000000     0.072200000000     0.663433333333   
O      0.169650000000     0.093150000000     0.371066666667   
O      0.146400000000     0.000000000000     0.613000000000   
O      0.100800000000     0.064000000000     0.619733333333   
O      0.042500000000     0.000000000000     0.367833333333   
O      0.042850000000     0.083550000000     0.664266666667   
Si     0.035450000000     0.058250000000     0.494166666667   
Si     0.079900000000     0.099150000000     0.416533333333   
Si     0.036250000000     0.057450000000     0.577000000000   
Si     0.142250000000     0.057400000000     0.367533333333   
Si     0.135400000000     0.057300000000     0.621766666667   
Si     0.035950000000     0.059200000000     0.372200000000   
Si     0.070750000000     0.099500000000     0.625866666667   
O      0.460200000000     0.000000000000     0.517166666667   
O      0.440200000000     0.090900000000     0.539233333333   
O      0.457700000000     0.067050000000     0.467200000000   
O      0.389050000000     0.064600000000     0.595700000000   
O      0.409750000000     0.156950000000     0.590766666667   
O      0.441150000000     0.084500000000     0.608500000000   
O      0.441150000000     0.093350000000     0.409500000000   
O      0.499900000000     0.069400000000     0.398300000000   
O      0.456100000000     0.000000000000     0.416833333333   
O      0.346500000000     0.000000000000     0.635300000000   
O      0.365250000000     0.072200000000     0.336566666667   
O      0.330350000000     0.093150000000     0.628933333333   
O      0.353600000000     0.000000000000     0.387000000000   
O      0.399200000000     0.064000000000     0.380266666667   
O      0.457500000000     0.000000000000     0.632166666667   
O      0.457150000000     0.083550000000     0.335733333333   
Si     0.464550000000     0.058250000000     0.505833333333   
Si     0.420100000000     0.099150000000     0.583466666667   
Si     0.463750000000     0.057450000000     0.423000000000   
Si     0.357750000000     0.057400000000     0.632466666667   
Si     0.364600000000     0.057300000000     0.378233333333   
Si     0.464050000000     0.059200000000     0.627800000000   
Si     0.429250000000     0.099500000000     0.374133333333   
O      0.000000000000     0.424700000000     0.500000000000   
O      0.440200000000     0.409100000000     0.539233333333   
O      0.457700000000     0.432950000000     0.467200000000   
O      0.389050000000     0.435400000000     0.595700000000   
O      0.409750000000     0.343050000000     0.590766666667   
O      0.441150000000     0.415500000000     0.608500000000   
O      0.441150000000     0.406650000000     0.409500000000   
O      0.499900000000     0.430600000000     0.398300000000   
O      0.365250000000     0.427800000000     0.336566666667   
O      0.330350000000     0.406850000000     0.628933333333   
O      0.399200000000     0.436000000000     0.380266666667   
O      0.457150000000     0.416450000000     0.335733333333   
Si     0.464550000000     0.441750000000     0.505833333333   
Si     0.420100000000     0.400850000000     0.583466666667   
Si     0.463750000000     0.442550000000     0.423000000000   
Si     0.357750000000     0.442600000000     0.632466666667   
Si     0.364600000000     0.442700000000     0.378233333333   
Si     0.464050000000     0.440800000000     0.627800000000   
Si     0.429250000000     0.400500000000     0.374133333333   
O      0.059800000000     0.409100000000     0.460766666667   
O      0.042300000000     0.432950000000     0.532800000000   
O      0.110950000000     0.435400000000     0.404300000000   
O      0.090250000000     0.343050000000     0.409233333333   
O      0.058850000000     0.415500000000     0.391500000000   
O      0.058850000000     0.406650000000     0.590500000000   
O      0.000100000000     0.430600000000     0.601700000000   
O      0.134750000000     0.427800000000     0.663433333333   
O      0.169650000000     0.406850000000     0.371066666667   
O      0.100800000000     0.436000000000     0.619733333333   
O      0.042850000000     0.416450000000     0.664266666667   
Si     0.035450000000     0.441750000000     0.494166666667   
Si     0.079900000000     0.400850000000     0.416533333333   
Si     0.036250000000     0.442550000000     0.577000000000   
Si     0.142250000000     0.442600000000     0.367533333333   
Si     0.135400000000     0.442700000000     0.621766666667   
Si     0.035950000000     0.440800000000     0.372200000000   
Si     0.070750000000     0.400500000000     0.625866666667   
O      0.250000000000     0.325300000000     0.500000000000   
O      0.289800000000     0.250000000000     0.482833333333   
O      0.309800000000     0.340900000000     0.460766666667   
O      0.292300000000     0.317050000000     0.532800000000   
O      0.360950000000     0.314600000000     0.404300000000   
O      0.340250000000     0.406950000000     0.409233333333   
O      0.308850000000     0.334500000000     0.391500000000   
O      0.308850000000     0.343350000000     0.590500000000   
O      0.250100000000     0.319400000000     0.601700000000   
O      0.293900000000     0.250000000000     0.583166666667   
O      0.403500000000     0.250000000000     0.364700000000   
O      0.384750000000     0.322200000000     0.663433333333   
O      0.419650000000     0.343150000000     0.371066666667   
O      0.396400000000     0.250000000000     0.613000000000   
O      0.350800000000     0.314000000000     0.619733333333   
O      0.292500000000     0.250000000000     0.367833333333   
O      0.292850000000     0.333550000000     0.664266666667   
Si     0.285450000000     0.308250000000     0.494166666667   
Si     0.329900000000     0.349150000000     0.416533333333   
Si     0.286250000000     0.307450000000     0.577000000000   
Si     0.392250000000     0.307400000000     0.367533333333   
Si     0.385400000000     0.307300000000     0.621766666667   
Si     0.285950000000     0.309200000000     0.372200000000   
Si     0.320750000000     0.349500000000     0.625866666667   
O      0.210200000000     0.250000000000     0.517166666667   
O      0.190200000000     0.340900000000     0.539233333333   
O      0.207700000000     0.317050000000     0.467200000000   
O      0.139050000000     0.314600000000     0.595700000000   
O      0.159750000000     0.406950000000     0.590766666667   
O      0.191150000000     0.334500000000     0.608500000000   
O      0.191150000000     0.343350000000     0.409500000000   
O      0.249900000000     0.319400000000     0.398300000000   
O      0.206100000000     0.250000000000     0.416833333333   
O      0.096500000000     0.250000000000     0.635300000000   
O      0.115250000000     0.322200000000     0.336566666667   
O      0.080350000000     0.343150000000     0.628933333333   
O      0.103600000000     0.250000000000     0.387000000000   
O      0.149200000000     0.314000000000     0.380266666667   
O      0.207500000000     0.250000000000     0.632166666667   
O      0.207150000000     0.333550000000     0.335733333333   
Si     0.214550000000     0.308250000000     0.505833333333   
Si     0.170100000000     0.349150000000     0.583466666667   
Si     0.213750000000     0.307450000000     0.423000000000   
Si     0.107750000000     0.307400000000     0.632466666667   
Si     0.114600000000     0.307300000000     0.378233333333   
Si     0.214050000000     0.309200000000     0.627800000000   
Si     0.179250000000     0.349500000000     0.374133333333   
O      0.250000000000     0.174700000000     0.500000000000   
O      0.190200000000     0.159100000000     0.539233333333   
O      0.207700000000     0.182950000000     0.467200000000   
O      0.139050000000     0.185400000000     0.595700000000   
O      0.159750000000     0.093050000000     0.590766666667   
O      0.191150000000     0.165500000000     0.608500000000   
O      0.191150000000     0.156650000000     0.409500000000   
O      0.249900000000     0.180600000000     0.398300000000   
O      0.115250000000     0.177800000000     0.336566666667   
O      0.080350000000     0.156850000000     0.628933333333   
O      0.149200000000     0.186000000000     0.380266666667   
O      0.207150000000     0.166450000000     0.335733333333   
Si     0.214550000000     0.191750000000     0.505833333333   
Si     0.170100000000     0.150850000000     0.583466666667   
Si     0.213750000000     0.192550000000     0.423000000000   
Si     0.107750000000     0.192600000000     0.632466666667   
Si     0.114600000000     0.192700000000     0.378233333333   
Si     0.214050000000     0.190800000000     0.627800000000   
Si     0.179250000000     0.150500000000     0.374133333333   
O      0.309800000000     0.159100000000     0.460766666667   
O      0.292300000000     0.182950000000     0.532800000000   
O      0.360950000000     0.185400000000     0.404300000000   
O      0.340250000000     0.093050000000     0.409233333333   
O      0.308850000000     0.165500000000     0.391500000000   
O      0.308850000000     0.156650000000     0.590500000000   
O      0.250100000000     0.180600000000     0.601700000000   
O      0.384750000000     0.177800000000     0.663433333333   
O      0.419650000000     0.156850000000     0.371066666667   
O      0.350800000000     0.186000000000     0.619733333333   
O      0.292850000000     0.166450000000     0.664266666667   
Si     0.285450000000     0.191750000000     0.494166666667   
Si     0.329900000000     0.150850000000     0.416533333333   
Si     0.286250000000     0.192550000000     0.577000000000   
Si     0.392250000000     0.192600000000     0.367533333333   
Si     0.385400000000     0.192700000000     0.621766666667   
Si     0.285950000000     0.190800000000     0.372200000000   
Si     0.320750000000     0.150500000000     0.625866666667   
O      0.000000000000     0.075300000000     0.833333333333   
O      0.039800000000     0.000000000000     0.816166666667   
O      0.059800000000     0.090900000000     0.794100000000   
O      0.042300000000     0.067050000000     0.866133333333   
O      0.110950000000     0.064600000000     0.737633333333   
O      0.090250000000     0.156950000000     0.742566666667   
O      0.058850000000     0.084500000000     0.724833333333   
O      0.058850000000     0.093350000000     0.923833333333   
O      0.000100000000     0.069400000000     0.935033333333   
O      0.043900000000     0.000000000000     0.916500000000   
O      0.153500000000     0.000000000000     0.698033333333   
O      0.134750000000     0.072200000000     0.996766666667   
O      0.169650000000     0.093150000000     0.704400000000   
O      0.146400000000     0.000000000000     0.946333333333   
O      0.100800000000     0.064000000000     0.953066666667   
O      0.042500000000     0.000000000000     0.701166666667   
O      0.042850000000     0.083550000000     0.997600000000   
Si     0.035450000000     0.058250000000     0.827500000000   
Si     0.079900000000     0.099150000000     0.749866666667   
Si     0.036250000000     0.057450000000     0.910333333333   
Si     0.142250000000     0.057400000000     0.700866666667   
Si     0.135400000000     0.057300000000     0.955100000000   
Si     0.035950000000     0.059200000000     0.705533333333   
Si     0.070750000000     0.099500000000     0.959200000000   
O      0.460200000000     0.000000000000     0.850500000000   
O      0.440200000000     0.090900000000     0.872566666667   
O      0.457700000000     0.067050000000     0.800533333333   
O      0.389050000000     0.064600000000     0.929033333333   
O      0.409750000000     0.156950000000     0.924100000000   
O      0.441150000000     0.084500000000     0.941833333333   
O      0.441150000000     0.093350000000     0.742833333333   
O      0.499900000000     0.069400000000     0.731633333333   
O      0.456100000000     0.000000000000     0.750166666667   
O      0.346500000000     0.000000000000     0.968633333333   
O      0.365250000000     0.072200000000     0.669900000000   
O      0.330350000000     0.093150000000     0.962266666667   
O      0.353600000000     0.000000000000     0.720333333333   
O      0.399200000000     0.064000000000     0.713600000000   
O      0.457500000000     0.000000000000     0.965500000000   
O      0.457150000000     0.083550000000     0.669066666667   
Si     0.464550000000     0.058250000000     0.839166666667   
Si     0.420100000000     0.099150000000     0.916800000000   
Si     0.463750000000     0.057450000000     0.756333333333   
Si     0.357750000000     0.057400000000     0.965800000000   
Si     0.364600000000     0.057300000000     0.711566666667   
Si     0.464050000000     0.059200000000     0.961133333333   
Si     0.429250000000     0.099500000000     0.707466666667   
O      0.000000000000     0.424700000000     0.833333333333   
O      0.440200000000     0.409100000000     0.872566666667   
O      0.457700000000     0.432950000000     0.800533333333   
O      0.389050000000     0.435400000000     0.929033333333   
O      0.409750000000     0.343050000000     0.924100000000   
O      0.441150000000     0.415500000000     0.941833333333   
O      0.441150000000     0.406650000000     0.742833333333   
O      0.499900000000     0.430600000000     0.731633333333   
O      0.365250000000     0.427800000000     0.669900000000   
O      0.330350000000     0.406850000000     0.962266666667   
O      0.399200000000     0.436000000000     0.713600000000   
O      0.457150000000     0.416450000000     0.669066666667   
Si     0.464550000000     0.441750000000     0.839166666667   
Si     0.420100000000     0.400850000000     0.916800000000   
Si     0.463750000000     0.442550000000     0.756333333333   
Si     0.357750000000     0.442600000000     0.965800000000   
Si     0.364600000000     0.442700000000     0.711566666667   
Si     0.464050000000     0.440800000000     0.961133333333   
Si     0.429250000000     0.400500000000     0.707466666667   
O      0.059800000000     0.409100000000     0.794100000000   
O      0.042300000000     0.432950000000     0.866133333333   
O      0.110950000000     0.435400000000     0.737633333333   
O      0.090250000000     0.343050000000     0.742566666667   
O      0.058850000000     0.415500000000     0.724833333333   
O      0.058850000000     0.406650000000     0.923833333333   
O      0.000100000000     0.430600000000     0.935033333333   
O      0.134750000000     0.427800000000     0.996766666667   
O      0.169650000000     0.406850000000     0.704400000000   
O      0.100800000000     0.436000000000     0.953066666667   
O      0.042850000000     0.416450000000     0.997600000000   
Si     0.035450000000     0.441750000000     0.827500000000   
Si     0.079900000000     0.400850000000     0.749866666667   
Si     0.036250000000     0.442550000000     0.910333333333   
Si     0.142250000000     0.442600000000     0.700866666667   
Si     0.135400000000     0.442700000000     0.955100000000   
Si     0.035950000000     0.440800000000     0.705533333333   
Si     0.070750000000     0.400500000000     0.959200000000   
O      0.250000000000     0.325300000000     0.833333333333   
O      0.289800000000     0.250000000000     0.816166666667   
O      0.309800000000     0.340900000000     0.794100000000   
O      0.292300000000     0.317050000000     0.866133333333   
O      0.360950000000     0.314600000000     0.737633333333   
O      0.340250000000     0.406950000000     0.742566666667   
O      0.308850000000     0.334500000000     0.724833333333   
O      0.308850000000     0.343350000000     0.923833333333   
O      0.250100000000     0.319400000000     0.935033333333   
O      0.293900000000     0.250000000000     0.916500000000   
O      0.403500000000     0.250000000000     0.698033333333   
O      0.384750000000     0.322200000000     0.996766666667   
O      0.419650000000     0.343150000000     0.704400000000   
O      0.396400000000     0.250000000000     0.946333333333   
O      0.350800000000     0.314000000000     0.953066666667   
O      0.292500000000     0.250000000000     0.701166666667   
O      0.292850000000     0.333550000000     0.997600000000   
Si     0.285450000000     0.308250000000     0.827500000000   
Si     0.329900000000     0.349150000000     0.749866666667   
Si     0.286250000000     0.307450000000     0.910333333333   
Si     0.392250000000     0.307400000000     0.700866666667   
Si     0.385400000000     0.307300000000     0.955100000000   
Si     0.285950000000     0.309200000000     0.705533333333   
Si     0.320750000000     0.349500000000     0.959200000000   
O      0.210200000000     0.250000000000     0.850500000000   
O      0.190200000000     0.340900000000     0.872566666667   
O      0.207700000000     0.317050000000     0.800533333333   
O      0.139050000000     0.314600000000     0.929033333333   
O      0.159750000000     0.406950000000     0.924100000000   
O      0.191150000000     0.334500000000     0.941833333333   
O      0.191150000000     0.343350000000     0.742833333333   
O      0.249900000000     0.319400000000     0.731633333333   
O      0.206100000000     0.250000000000     0.750166666667   
O      0.096500000000     0.250000000000     0.968633333333   
O      0.115250000000     0.322200000000     0.669900000000   
O      0.080350000000     0.343150000000     0.962266666667   
O      0.103600000000     0.250000000000     0.720333333333   
O      0.149200000000     0.314000000000     0.713600000000   
O      0.207500000000     0.250000000000     0.965500000000   
O      0.207150000000     0.333550000000     0.669066666667   
Si     0.214550000000     0.308250000000     0.839166666667   
Si     0.170100000000     0.349150000000     0.916800000000   
Si     0.213750000000     0.307450000000     0.756333333333   
Si     0.107750000000     0.307400000000     0.965800000000   
Si     0.114600000000     0.307300000000     0.711566666667   
Si     0.214050000000     0.309200000000     0.961133333333   
Si     0.179250000000     0.349500000000     0.707466666667   
O      0.250000000000     0.174700000000     0.833333333333   
O      0.190200000000     0.159100000000     0.872566666667   
O      0.207700000000     0.182950000000     0.800533333333   
O      0.139050000000     0.185400000000     0.929033333333   
O      0.159750000000     0.093050000000     0.924100000000   