%BLOCK LATTICE_CART
ang    # angstrom units
  8.444000000000     0.000000000000     0.000000000000   
  0.000000000000     14.083000000000    0.000000000000   
  0.000000000000     0.000000000000     15.929000000000  
%ENDBLOCK LATTICE_CART

%BLOCK POSITIONS_FRAC
O      0.220975000000     0.125000000000     0.083700000000   
O      0.182450000000     0.064150000000     0.036350000000   
O      0.243750000000     0.035750000000     0.080750000000   
O      0.177150000000     0.058650000000     0.118500000000   
O      0.140025000000     0.193650000000     0.467500000000   
O      0.108250000000     0.213500000000     0.040750000000   
O      0.125200000000     0.125000000000     0.021200000000   
O      0.008800000000     0.266750000000     0.147100000000   
O      0.058250000000     0.266500000000     0.083200000000   
Si     0.206125000000     0.070850000000     0.079800000000   
Si     0.138950000000     0.179450000000     0.016450000000   
Si     0.028200000000     0.234750000000     0.110600000000   
Si     0.102600000000     0.486700000000     0.064800000000   
O      0.154025000000     0.375000000000     0.333700000000   
O      0.192550000000     0.435850000000     0.286350000000   
O      0.131250000000     0.464250000000     0.330750000000   
O      0.197850000000     0.441350000000     0.368500000000   
O      0.234975000000     0.306350000000     0.217500000000   
O      0.016750000000     0.286500000000     0.290750000000   
O      0.249800000000     0.375000000000     0.271200000000   
O      0.116200000000     0.233250000000     0.397100000000   
O      0.066750000000     0.233500000000     0.333200000000   
Si     0.168875000000     0.429150000000     0.329800000000   
Si     0.236050000000     0.320550000000     0.266450000000   
Si     0.096800000000     0.265250000000     0.360600000000   
Si     0.022400000000     0.013300000000     0.314800000000   
O      0.095975000000     0.125000000000     0.166300000000   
O      0.057450000000     0.185850000000     0.213650000000   
O      0.118750000000     0.214250000000     0.169250000000   
O      0.052150000000     0.191350000000     0.131500000000   
O      0.015025000000     0.056350000000     0.282500000000   
O      0.233250000000     0.036500000000     0.209250000000   
O      0.000200000000     0.125000000000     0.228800000000   
O      0.133800000000     0.483250000000     0.102900000000   
O      0.183250000000     0.483500000000     0.166800000000   
Si     0.081125000000     0.179150000000     0.170200000000   
Si     0.013950000000     0.070550000000     0.233550000000   
Si     0.153200000000     0.015250000000     0.139400000000   
Si     0.227600000000     0.263300000000     0.185200000000   
O      0.029025000000     0.375000000000     0.416300000000   
O      0.067550000000     0.314150000000     0.463650000000   
O      0.006250000000     0.285750000000     0.419250000000   
O      0.072850000000     0.308650000000     0.381500000000   
O      0.109975000000     0.443650000000     0.032500000000   
O      0.141750000000     0.463500000000     0.459250000000   
O      0.124800000000     0.375000000000     0.478800000000   
O      0.241200000000     0.016750000000     0.352900000000   
O      0.191750000000     0.016500000000     0.416800000000   
Si     0.043875000000     0.320850000000     0.420200000000   
Si     0.111050000000     0.429450000000     0.483550000000   
Si     0.221800000000     0.484750000000     0.389400000000   
Si     0.147400000000     0.236700000000     0.435200000000   
O      0.067550000000     0.435850000000     0.463650000000   
O      0.006250000000     0.464250000000     0.419250000000   
O      0.072850000000     0.441350000000     0.381500000000   
O      0.109975000000     0.306350000000     0.032500000000   
O      0.141750000000     0.286500000000     0.459250000000   
O      0.241200000000     0.233250000000     0.352900000000   
O      0.191750000000     0.233500000000     0.416800000000   
Si     0.043875000000     0.429150000000     0.420200000000   
Si     0.111050000000     0.320550000000     0.483550000000   
Si     0.221800000000     0.265250000000     0.389400000000   
Si     0.147400000000     0.013300000000     0.435200000000   
O      0.057450000000     0.064150000000     0.213650000000   
O      0.118750000000     0.035750000000     0.169250000000   
O      0.052150000000     0.058650000000     0.131500000000   
O      0.015025000000     0.193650000000     0.282500000000   
O      0.233250000000     0.213500000000     0.209250000000   
O      0.133800000000     0.266750000000     0.102900000000   
O      0.183250000000     0.266500000000     0.166800000000   
Si     0.081125000000     0.070850000000     0.170200000000   
Si     0.013950000000     0.179450000000     0.233550000000   
Si     0.153200000000     0.234750000000     0.139400000000   
Si     0.227600000000     0.486700000000     0.185200000000   
O      0.192550000000     0.314150000000     0.286350000000   
O      0.131250000000     0.285750000000     0.330750000000   
O      0.197850000000     0.308650000000     0.368500000000   
O      0.234975000000     0.443650000000     0.217500000000   
O      0.016750000000     0.463500000000     0.290750000000   
O      0.116200000000     0.016750000000     0.397100000000   
O      0.066750000000     0.016500000000     0.333200000000   
Si     0.168875000000     0.320850000000     0.329800000000   
Si     0.236050000000     0.429450000000     0.266450000000   
Si     0.096800000000     0.484750000000     0.360600000000   
Si     0.022400000000     0.236700000000     0.314800000000   
O      0.182450000000     0.185850000000     0.036350000000   
O      0.243750000000     0.214250000000     0.080750000000   
O      0.177150000000     0.191350000000     0.118500000000   
O      0.140025000000     0.056350000000     0.467500000000   
O      0.108250000000     0.036500000000     0.040750000000   
O      0.008800000000     0.483250000000     0.147100000000   
O      0.058250000000     0.483500000000     0.083200000000   
Si     0.206125000000     0.179150000000     0.079800000000   
Si     0.138950000000     0.070550000000     0.016450000000   
Si     0.028200000000     0.015250000000     0.110600000000   
Si     0.102600000000     0.263300000000     0.064800000000   
O      0.220975000000     0.125000000000     0.583700000000   
O      0.182450000000     0.064150000000     0.536350000000   
O      0.243750000000     0.035750000000     0.580750000000   
O      0.177150000000     0.058650000000     0.618500000000   
O      0.140025000000     0.193650000000     0.967500000000   
O      0.108250000000     0.213500000000     0.540750000000   
O      0.125200000000     0.125000000000     0.521200000000   
O      0.008800000000     0.266750000000     0.647100000000   
O      0.058250000000     0.266500000000     0.583200000000   
Si     0.206125000000     0.070850000000     0.579800000000   
Si     0.138950000000     0.179450000000     0.516450000000   
Si     0.028200000000     0.234750000000     0.610600000000   
Si     0.102600000000     0.486700000000     0.564800000000   
O      0.154025000000     0.375000000000     0.833700000000   
O      0.192550000000     0.435850000000     0.786350000000   
O      0.131250000000     0.464250000000     0.830750000000   
O      0.197850000000     0.441350000000     0.868500000000   
O      0.234975000000     0.306350000000     0.717500000000   
O      0.016750000000     0.286500000000     0.790750000000   
O      0.249800000000     0.375000000000     0.771200000000   
O      0.116200000000     0.233250000000     0.897100000000   
O      0.066750000000     0.233500000000     0.833200000000   
Si     0.168875000000     0.429150000000     0.829800000000   
Si     0.236050000000     0.320550000000     0.766450000000   
Si     0.096800000000     0.265250000000     0.860600000000   
Si     0.022400000000     0.013300000000     0.814800000000   
O      0.095975000000     0.125000000000     0.666300000000   
O      0.057450000000     0.185850000000     0.713650000000   
O      0.118750000000     0.214250000000     0.669250000000   
O      0.052150000000     0.191350000000     0.631500000000   
O      0.015025000000     0.056350000000     0.782500000000   
O      0.233250000000     0.036500000000     0.709250000000   
O      0.000200000000     0.125000000000     0.728800000000   
O      0.133800000000     0.483250000000     0.602900000000   
O      0.183250000000     0.483500000000     0.666800000000   
Si     0.081125000000     0.179150000000     0.670200000000   
Si     0.013950000000     0.070550000000     0.733550000000   
Si     0.153200000000     0.015250000000     0.639400000000   
Si     0.227600000000     0.263300000000     0.685200000000   
O      0.029025000000     0.375000000000     0.916300000000   
O      0.067550000000     0.314150000000     0.963650000000   
O      0.006250000000     0.285750000000     0.919250000000   
O      0.072850000000     0.308650000000     0.881500000000   
O      0.109975000000     0.443650000000     0.532500000000   
O      0.141750000000     0.463500000000     0.959250000000   
O      0.124800000000     0.375000000000     0.978800000000   
O      0.241200000000     0.016750000000     0.852900000000   
O      0.191750000000     0.016500000000     0.916800000000   
Si     0.043875000000     0.320850000000     0.920200000000   
Si     0.111050000000     0.429450000000     0.983550000000   
Si     0.221800000000     0.484750000000     0.889400000000   
Si     0.147400000000     0.236700000000     0.935200000000   
O      0.067550000000     0.435850000000     0.963650000000   
O      0.006250000000     0.464250000000     0.919250000000   
O      0.072850000000     0.441350000000     0.881500000000   
O      0.109975000000     0.306350000000     0.532500000000   
O      0.141750000000     0.286500000000     0.959250000000   
O      0.241200000000     0.233250000000     0.852900000000   
O      0.191750000000     0.233500000000     0.916800000000   
Si     0.043875000000     0.429150000000     0.920200000000   
Si     0.111050000000     0.320550000000     0.983550000000   
Si     0.221800000000     0.265250000000     0.889400000000   
Si     0.147400000000     0.013300000000     0.935200000000   
O      0.057450000000     0.064150000000     0.713650000000   
O      0.118750000000     0.035750000000     0.669250000000   
O      0.052150000000     0.058650000000     0.631500000000   
O      0.015025000000     0.193650000000     0.782500000000   
O      0.233250000000     0.213500000000     0.709250000000   
O      0.133800000000     0.266750000000     0.602900000000   
O      0.183250000000     0.266500000000     0.666800000000   
Si     0.081125000000     0.070850000000     0.670200000000   
Si     0.013950000000     0.179450000000     0.733550000000   
Si     0.153200000000     0.234750000000     0.639400000000   
Si     0.227600000000     0.486700000000     0.685200000000   
O      0.192550000000     0.314150000000     0.786350000000   
O      0.131250000000     0.285750000000     0.830750000000   
O      0.197850000000     0.308650000000     0.868500000000   
O      0.234975000000     0.443650000000     0.717500000000   
O      0.016750000000     0.463500000000     0.790750000000   
O      0.116200000000     0.016750000000     0.897100000000   
O      0.066750000000     0.016500000000     0.833200000000   
Si     0.168875000000     0.320850000000     0.829800000000   
Si     0.236050000000     0.429450000000     0.766450000000   
Si     0.096800000000     0.484750000000     0.860600000000   
Si     0.022400000000     0.236700000000     0.814800000000   
O      0.182450000000     0.185850000000     0.536350000000   
O      0.243750000000     0.214250000000     0.580750000000   
O      0.177150000000     0.191350000000     0.618500000000   
O      0.140025000000     0.056350000000     0.967500000000   
O      0.108250000000     0.036500000000     0.540750000000   
O      0.008800000000     0.483250000000     0.647100000000   
O      0.058250000000     0.483500000000     0.583200000000   
Si     0.206125000000     0.179150000000     0.579800000000   
Si     0.138950000000     0.070550000000     0.516450000000   
Si     0.028200000000     0.015250000000     0.610600000000   
Si     0.102600000000     0.263300000000     0.564800000000   
O      0.220975000000     0.625000000000     0.083700000000   
O      0.182450000000     0.564150000000     0.036350000000   
O      0.243750000000     0.535750000000     0.080750000000   
O      0.177150000000     0.558650000000     0.118500000000   
O      0.140025000000     0.693650000000     0.467500000000   
O      0.108250000000     0.713500000000     0.040750000000   
O      0.125200000000     0.625000000000     0.021200000000   
O      0.008800000000     0.766750000000     0.147100000000   
O      0.058250000000     0.766500000000     0.083200000000   
Si     0.206125000000     0.570850000000     0.079800000000   
Si     0.138950000000     0.679450000000     0.016450000000   
Si     0.028200000000     0.734750000000     0.110600000000   
Si     0.102600000000     0.986700000000     0.064800000000   
O      0.154025000000     0.875000000000     0.333700000000   
O      0.192550000000     0.935850000000     0.286350000000   
O      0.131250000000     0.964250000000     0.330750000000   
O      0.197850000000     0.941350000000     0.368500000000   
O      0.234975000000     0.806350000000     0.217500000000   
O      0.016750000000     0.786500000000     0.290750000000   
O      0.249800000000     0.875000000000     0.271200000000   
O      0.116200000000     0.733250000000     0.397100000000   
O      0.066750000000     0.733500000000     0.333200000000   
Si     0.168875000000     0.929150000000     0.329800000000   
Si     0.236050000000     0.820550000000     0.266450000000   
Si     0.096800000000     0.765250000000     0.360600000000   
Si     0.022400000000     0.513300000000     0.314800000000   
O      0.095975000000     0.625000000000     0.166300000000   
O      0.057450000000     0.685850000000     0.213650000000   
O      0.118750000000     0.714250000000     0.169250000000   
O      0.052150000000     0.691350000000     0.131500000000   
O      0.015025000000     0.556350000000     0.282500000000   
O      0.233250000000     0.536500000000     0.209250000000   
O      0.000200000000     0.625000000000     0.228800000000   
O      0.133800000000     0.983250000000     0.102900000000   
O      0.183250000000     0.983500000000     0.166800000000   
Si     0.081125000000     0.679150000000     0.170200000000   
Si     0.013950000000     0.570550000000     0.233550000000   
Si     0.153200000000     0.515250000000     0.139400000000   
Si     0.227600000000     0.763300000000     0.185200000000   
O      0.029025000000     0.875000000000     0.416300000000   
O      0.067550000000     0.814150000000     0.463650000000   
O      0.006250000000     0.785750000000     0.419250000000   
O      0.072850000000     0.808650000000     0.381500000000   
O      0.109975000000     0.943650000000     0.032500000000   
O      0.141750000000     0.963500000000     0.459250000000   
O      0.124800000000     0.875000000000     0.478800000000   
O      0.241200000000     0.516750000000     0.352900000000   
O      0.191750000000     0.516500000000     0.416800000000   
Si     0.043875000000     0.820850000000     0.420200000000   
Si     0.111050000000     0.929450000000     0.483550000000   
Si     0.221800000000     0.984750000000     0.389400000000   
Si     0.147400000000     0.736700000000     0.435200000000   
O      0.067550000000     0.935850000000     0.463650000000   
O      0.006250000000     0.964250000000     0.419250000000   
O      0.072850000000     0.941350000000     0.381500000000   
O      0.109975000000     0.806350000000     0.032500000000   
O      0.141750000000     0.786500000000     0.459250000000   
O      0.241200000000     0.733250000000     0.352900000000   
O      0.191750000000     0.733500000000     0.416800000000   
Si     0.043875000000     0.929150000000     0.420200000000   
Si     0.111050000000     0.820550000000     0.483550000000   
Si     0.221800000000     0.765250000000     0.389400000000   
Si     0.147400000000     0.513300000000     0.435200000000   
O      0.057450000000     0.564150000000     0.213650000000   
O      0.118750000000     0.535750000000     0.169250000000   
O      0.052150000000     0.558650000000     0.131500000000   
O      0.015025000000     0.693650000000     0.282500000000   
O      0.233250000000     0.713500000000     0.209250000000   
O      0.133800000000     0.766750000000     0.102900000000   
O      0.183250000000     0.766500000000     0.166800000000   
Si     0.081125000000     0.570850000000     0.170200000000   
Si     0.013950000000     0.679450000000     0.233550000000   
Si     0.153200000000     0.734750000000     0.139400000000   
Si     0.227600000000     0.986700000000     0.185200000000   
O      0.192550000000     0.814150000000     0.286350000000   
O      0.131250000000     0.785750000000     0.330750000000   
O      0.197850000000     0.808650000000     0.368500000000   
O      0.234975000000     0.943650000000     0.217500000000   
O      0.016750000000     0.963500000000     0.290750000000   
O      0.116200000000     0.516750000000     0.397100000000   
O      0.066750000000     0.516500000000     0.333200000000   
Si     0.168875000000     0.820850000000     0.329800000000   
Si     0.236050000000     0.929450000000     0.266450000000   
Si     0.096800000000     0.984750000000     0.360600000000   
Si     0.022400000000     0.736700000000     0.314800000000   
O      0.182450000000     0.685850000000     0.036350000000   
O      0.243750000000     0.714250000000     0.080750000000   
O      0.177150000000     0.691350000000     0.118500000000   
O      0.140025000000     0.556350000000     0.467500000000   
O      0.108250000000     0.536500000000     0.040750000000   
O      0.008800000000     0.983250000000     0.147100000000   
O      0.058250000000     0.983500000000     0.083200000000   
Si     0.206125000000     0.679150000000     0.079800000000   
Si     0.138950000000     0.570550000000     0.016450000000   
Si     0.028200000000     0.515250000000     0.110600000000   
Si     0.102600000000     0.763300000000     0.064800000000   
O      0.220975000000     0.625000000000     0.583700000000   
O      0.182450000000     0.564150000000     0.536350000000   
O      0.243750000000     0.535750000000     0.580750000000   
O      0.177150000000     0.558650000000     0.618500000000   
O      0.140025000000     0.693650000000     0.967500000000   
O      0.108250000000     0.713500000000     0.540750000000   
O      0.125200000000     0.625000000000     0.521200000000   
O      0.008800000000     0.766750000000     0.647100000000   
O      0.058250000000     0.766500000000     0.583200000000   
Si     0.206125000000     0.570850000000     0.579800000000   
Si     0.138950000000     0.679450000000     0.516450000000   
Si     0.028200000000     0.734750000000     0.610600000000   
Si     0.102600000000     0.986700000000     0.564800000000   
O      0.154025000000     0.875000000000     0.833700000000   
O      0.192550000000     0.935850000000     0.786350000000   
O      0.131250000000     0.964250000000     0.830750000000   
O      0.197850000000     0.941350000000     0.868500000000   
O      0.234975000000     0.806350000000     0.717500000000   
O      0.016750000000     0.786500000000     0.790750000000   
O      0.249800000000     0.875000000000     0.771200000000   
O      0.116200000000     0.733250000000     0.897100000000   
O      0.066750000000     0.733500000000     0.833200000000   
Si     0.168875000000     0.929150000000     0.829800000000   
Si     0.236050000000     0.820550000000     0.766450000000   
Si     0.096800000000     0.765250000000     0.860600000000   
Si     0.022400000000     0.513300000000     0.814800000000   
O      0.095975000000     0.625000000000     0.666300000000   
O      0.057450000000     0.685850000000     0.713650000000   
O      0.118750000000     0.714250000000     0.669250000000   
O      0.052150000000     0.691350000000     0.631500000000   
O      0.015025000000     0.556350000000     0.782500000000   
O      0.233250000000     0.536500000000     0.709250000000   
O      0.000200000000     0.625000000000     0.728800000000   
O      0.133800000000     0.983250000000     0.602900000000   
O      0.183250000000     0.983500000000     0.666800000000   
Si     0.081125000000     0.679150000000     0.670200000000   
Si     0.013950000000     0.570550000000     0.733550000000   
Si     0.153200000000     0.515250000000     0.639400000000   
Si     0.227600000000     0.763300000000     0.685200000000   
O      0.029025000000     0.875000000000     0.916300000000   
O      0.067550000000     0.814150000000     0.963650000000   
O      0.006250000000     0.785750000000     0.919250000000   
O      0.072850000000     0.808650000000     0.881500000000   
O      0.109975000000     0.943650000000     0.532500000000   
O      0.141750000000     0.963500000000     0.959250000000   
O      0.124800000000     0.875000000000     0.978800000000   
O      0.241200000000     0.516750000000     0.852900000000   
O      0.191750000000     0.516500000000     0.916800000000   
Si     0.043875000000     0.820850000000     0.920200000000   
Si     0.111050000000     0.929450000000     0.983550000000   
Si     0.221800000000     0.984750000000     0.889400000000   
Si     0.147400000000     0.736700000000     0.935200000000   
O      0.067550000000     0.935850000000     0.963650000000   
O      0.006250000000     0.964250000000     0.919250000000   
O      0.072850000000     0.941350000000     0.881500000000   
O      0.109975000000     0.806350000000     0.532500000000   
O      0.141750000000     0.786500000000     0.959250000000   
O      0.241200000000     0.733250000000     0.852900000000   
O      0.191750000000     0.733500000000     0.916800000000   
Si     0.043875000000     0.929150000000     0.920200000000   
Si     0.111050000000     0.820550000000     0.983550000000   
Si     0.221800000000     0.765250000000     0.889400000000   
Si     0.147400000000     0.513300000000     0.935200000000   
O      0.057450000000     0.564150000000     0.713650000000   
O      0.118750000000     0.535750000000     0.669250000000   
O      0.052150000000     0.558650000000     0.631500000000   
O      0.015025000000     0.693650000000     0.782500000000   
O      0.233250000000     0.713500000000     0.709250000000   
O      0.133800000000     0.766750000000     0.602900000000   
O      0.183250000000     0.766500000000     0.666800000000   
Si     0.081125000000     0.570850000000     0.670200000000   
Si     0.013950000000     0.679450000000     0.733550000000   
Si     0.153200000000     0.734750000000     0.639400000000   
Si     0.227600000000     0.986700000000     0.685200000000   
O      0.192550000000     0.814150000000     0.786350000000   
O      0.131250000000     0.785750000000     0.830750000000   
O      0.197850000000     0.808650000000     0.868500000000   
O      0.234975000000     0.943650000000     0.717500000000   
O      0.016750000000     0.963500000000     0.790750000000   
O      0.116200000000     0.516750000000     0.897100000000   
O      0.066750000000     0.516500000000     0.833200000000   
Si     0.168875000000     0.820850000000     0.829800000000   
Si     0.236050000000     0.929450000000     0.766450000000   
Si     0.096800000000     0.984750000000     0.860600000000   
Si     0.022400000000     0.736700000000     0.814800000000   
O      0.182450000000     0.685850000000     0.536350000000   
O      0.243750000000     0.714250000000     0.580750000000   
O      0.177150000000     0.691350000000     0.618500000000   
O      0.140025000000     0.556350000000     0.967500000000   
O      0.108250000000     0.536500000000     0.540750000000   
O      0.008800000000     0.983250000000     0.647100000000   
O      0.058250000000     0.983500000000     0.583200000000   
Si     0.206125000000     0.679150000000     0.579800000000   
Si     0.138950000000     0.570550000000     0.516450000000   
Si     0.028200000000     0.515250000000     0.610600000000   
Si     0.102600000000     0.763300000000     0.564800000000   
O      0.470975000000     0.125000000000     0.083700000000   
O      0.432450000000     0.064150000000     0.036350000000   
O      0.493750000000     0.035750000000     0.080750000000   
O      0.427150000000     0.058650000000     0.118500000000   
O      0.390025000000     0.193650000000     0.467500000000   
O      0.358250000000     0.213500000000     0.040750000000   
O      0.375200000000     0.125000000000     0.021200000000   
O      0.258800000000     0.266750000000     0.147100000000   
O      0.308250000000     0.266500000000     0.083200000000   
Si     0.456125000000     0.070850000000     0.079800000000   
Si     0.388950000000     0.179450000000     0.016450000000   
Si     0.278200000000     0.234750000000     0.110600000000   
Si     0.352600000000     0.486700000000     0.064800000000   
O      0.404025000000     0.375000000000     0.333700000000   
O      0.442550000000     0.435850000000     0.286350000000   
O      0.381250000000     0.464250000000     0.330750000000   
O      0.447850000000     0.441350000000     0.368500000000   
O      0.484975000000     0.306350000000     0.217500000000   
O      0.266750000000     0.286500000000     0.290750000000   
O      0.499800000000     0.375000000000     0.271200000000   
O      0.366200000000     0.233250000000     0.397100000000   
O      0.316750000000     0.233500000000     0.333200000000   
Si     0.418875000000     0.429150000000     0.329800000000   
Si     0.486050000000     0.320550000000     0.266450000000   
Si     0.346800000000     0.265250000000     0.360600000000   
Si     0.272400000000     0.013300000000     0.314800000000   
O      0.345975000000     0.125000000000     0.166300000000   
O      0.307450000000     0.185850000000     0.213650000000   
O      0.368750000000     0.214250000000     0.169250000000   
O      0.302150000000     0.191350000000     0.131500000000   
O      0.265025000000     0.056350000000     0.282500000000   
O      0.483250000000     0.036500000000     0.209250000000   
O      0.250200000000     0.125000000000     0.228800000000   
O      0.383800000000     0.483250000000     0.102900000000   
O      0.433250000000     0.483500000000     0.166800000000   
Si     0.331125000000     0.179150000000     0.170200000000   
Si     0.263950000000     0.070550000000     0.233550000000   
Si     0.403200000000     0.015250000000     0.139400000000   
Si     0.477600000000     0.263300000000     0.185200000000   
O      0.279025000000     0.375000000000     0.416300000000   
O      0.317550000000     0.314150000000     0.463650000000   
O      0.256250000000     0.285750000000     0.419250000000   
O      0.322850000000     0.308650000000     0.381500000000   
O      0.359975000000     0.443650000000     0.032500000000   
O      0.391750000000     0.463500000000     0.459250000000   
O      0.374800000000     0.375000000000     0.478800000000   
O      0.491200000000     0.016750000000     0.352900000000   
O      0.441750000000     0.016500000000     0.416800000000   
Si     0.293875000000     0.320850000000     0.420200000000   
Si     0.361050000000     0.429450000000     0.483550000000   
Si     0.471800000000     0.484750000000     0.389400000000   
Si     0.397400000000     0.236700000000     0.435200000000   
O      0.317550000000     0.435850000000     0.463650000000   
O      0.256250000000     0.464250000000     0.419250000000   
O      0.322850000000     0.441350000000     0.381500000000   
O      0.359975000000     0.306350000000     0.032500000000   
O      0.391750000000     0.286500000000     0.459250000000   
O      0.491200000000     0.233250000000     0.352900000000   
O      0.441750000000     0.233500000000     0.416800000000   
Si     0.293875000000     0.429150000000     0.420200000000   
Si     0.361050000000     0.320550000000     0.483550000000   
Si     0.471800000000     0.265250000000     0.389400000000   
Si     0.397400000000     0.013300000000     0.435200000000   
O      0.307450000000     0.064150000000     0.213650000000   
O      0.368750000000     0.035750000000     0.169250000000   
O      0.302150000000     0.058650000000     0.131500000000   
O      0.265025000000     0.193650000000     0.282500000000   
O      0.483250000000     0.213500000000     0.209250000000   
O      0.383800000000     0.266750000000     0.102900000000   
O      0.433250000000     0.266500000000     0.166800000000   
Si     0.331125000000     0.070850000000     0.170200000000   
Si     0.263950000000     0.179450000000     0.233550000000   
Si     0.403200000000     0.234750000000     0.139400000000   
Si     0.477600000000     0.486700000000     0.185200000000   
O      0.442550000000     0.314150000000     0.286350000000   
O      0.381250000000     0.285750000000     0.330750000000   
O      0.447850000000     0.308650000000     0.368500000000   
O      0.484975000000     0.443650000000     0.217500000000   
O      0.266750000000     0.463500000000     0.290750000000   
O      0.366200000000     0.016750000000     0.397100000000   
O      0.316750000000     0.016500000000     0.333200000000   
Si     0.418875000000     0.320850000000     0.329800000000   
Si     0.486050000000     0.429450000000     0.266450000000   
Si     0.346800000000     0.484750000000     0.360600000000   
Si     0.272400000000     0.236700000000     0.314800000000   
O      0.432450000000     0.185850000000     0.036350000000   
O      0.493750000000     0.214250000000     0.080750000000   
O      0.427150000000     0.191350000000     0.118500000000   