%BLOCK LATTICE_CART
ang    # angstrom units
  18.284000000000    0.000000000000     0.000000000000   
 -9.142000000000     15.834408482795    0.000000000000   
  0.000000000000     0.000000000000     8.589000000000   
%ENDBLOCK LATTICE_CART

%BLOCK POSITIONS_FRAC
O      0.084650000000     0.292350000000     0.000000000000   
O      0.124650000000     0.375350000000     0.000000000000   
O      0.041700000000     0.332400000000     0.332800000000   
O      0.084050000000     0.333350000000     0.250000000000   
O      0.250000000000     0.000000000000     0.000000000000   
O      0.291650000000     0.000000000000     0.083333333333   
Si     0.083850000000     0.333350000000     0.312400000000   
Si     0.291400000000     0.000000000000     0.020966666667   
O      0.292300000000     0.084650000000     0.166666666667   
O      0.249300000000     0.124650000000     0.166666666667   
O      0.209300000000     0.041700000000     0.166133333333   
O      0.250700000000     0.084050000000     0.083333333333   
O      0.250000000000     0.250000000000     0.166666666667   
O      0.291650000000     0.291650000000     0.250000000000   
Si     0.250500000000     0.083850000000     0.145733333333   
Si     0.291400000000     0.291400000000     0.187633333333   
O      0.207650000000     0.292300000000     0.000000000000   
O      0.124650000000     0.249300000000     0.000000000000   
O      0.167600000000     0.209300000000     0.332800000000   
O      0.166650000000     0.250700000000     0.250000000000   
O      0.000000000000     0.250000000000     0.000000000000   
O      0.000000000000     0.291650000000     0.083333333333   
Si     0.166650000000     0.250500000000     0.312400000000   
Si     0.000000000000     0.291400000000     0.020966666667   
O      0.415350000000     0.207650000000     0.166666666667   
O      0.375350000000     0.124650000000     0.166666666667   
O      0.458300000000     0.167600000000     0.166133333333   
O      0.415950000000     0.166650000000     0.083333333333   
O      0.250000000000     0.000000000000     0.166666666667   
O      0.208350000000     0.000000000000     0.250000000000   
Si     0.416150000000     0.166650000000     0.145733333333   
Si     0.208600000000     0.000000000000     0.187633333333   
O      0.207700000000     0.415350000000     0.000000000000   
O      0.250700000000     0.375350000000     0.000000000000   
O      0.290700000000     0.458300000000     0.332800000000   
O      0.249300000000     0.415950000000     0.250000000000   
O      0.250000000000     0.250000000000     0.000000000000   
O      0.208350000000     0.208350000000     0.083333333333   
Si     0.249500000000     0.416150000000     0.312400000000   
Si     0.208600000000     0.208600000000     0.020966666667   
O      0.292350000000     0.207700000000     0.166666666667   
O      0.375350000000     0.250700000000     0.166666666667   
O      0.332400000000     0.290700000000     0.166133333333   
O      0.333350000000     0.249300000000     0.083333333333   
O      0.000000000000     0.250000000000     0.166666666667   
O      0.000000000000     0.208350000000     0.250000000000   
Si     0.333350000000     0.249500000000     0.145733333333   
Si     0.000000000000     0.208600000000     0.187633333333   
O      0.167600000000     0.458300000000     0.000533333333   
O      0.166650000000     0.415950000000     0.083333333333   
Si     0.166650000000     0.416150000000     0.020933333333   
Si     0.000000000000     0.208600000000     0.312366666667   
O      0.209300000000     0.167600000000     0.167200000000   
O      0.250700000000     0.166650000000     0.250000000000   
Si     0.250500000000     0.166650000000     0.187600000000   
Si     0.291400000000     0.000000000000     0.145700000000   
O      0.041700000000     0.209300000000     0.000533333333   
O      0.084050000000     0.250700000000     0.083333333333   
Si     0.083850000000     0.250500000000     0.020933333333   
Si     0.291400000000     0.291400000000     0.312366666667   
O      0.332400000000     0.041700000000     0.167200000000   
O      0.333350000000     0.084050000000     0.250000000000   
Si     0.333350000000     0.083850000000     0.187600000000   
Si     0.000000000000     0.291400000000     0.145700000000   
O      0.290700000000     0.332400000000     0.000533333333   
O      0.249300000000     0.333350000000     0.083333333333   
Si     0.249500000000     0.333350000000     0.020933333333   
Si     0.208600000000     0.000000000000     0.312366666667   
O      0.458300000000     0.290700000000     0.167200000000   
O      0.415950000000     0.249300000000     0.250000000000   
Si     0.416150000000     0.249500000000     0.187600000000   
Si     0.208600000000     0.208600000000     0.145700000000   
O      0.415350000000     0.207650000000     0.000000000000   
O      0.375350000000     0.124650000000     0.000000000000   
O      0.458300000000     0.167600000000     0.000533333333   
Si     0.416150000000     0.166650000000     0.020933333333   
O      0.207700000000     0.415350000000     0.166666666667   
O      0.250700000000     0.375350000000     0.166666666667   
O      0.290700000000     0.458300000000     0.167200000000   
Si     0.249500000000     0.416150000000     0.187600000000   
O      0.292350000000     0.207700000000     0.000000000000   
O      0.375350000000     0.250700000000     0.000000000000   
O      0.332400000000     0.290700000000     0.000533333333   
Si     0.333350000000     0.249500000000     0.020933333333   
O      0.084650000000     0.292350000000     0.166666666667   
O      0.124650000000     0.375350000000     0.166666666667   
O      0.041700000000     0.332400000000     0.167200000000   
Si     0.083850000000     0.333350000000     0.187600000000   
O      0.292300000000     0.084650000000     0.000000000000   
O      0.249300000000     0.124650000000     0.000000000000   
O      0.209300000000     0.041700000000     0.000533333333   
Si     0.250500000000     0.083850000000     0.020933333333   
O      0.207650000000     0.292300000000     0.166666666667   
O      0.124650000000     0.249300000000     0.166666666667   
O      0.167600000000     0.209300000000     0.167200000000   
Si     0.166650000000     0.250500000000     0.187600000000   
O      0.332400000000     0.041700000000     0.332800000000   
Si     0.333350000000     0.083850000000     0.312400000000   
O      0.290700000000     0.332400000000     0.166133333333   
Si     0.249500000000     0.333350000000     0.145733333333   
O      0.458300000000     0.290700000000     0.332800000000   
Si     0.416150000000     0.249500000000     0.312400000000   
O      0.167600000000     0.458300000000     0.166133333333   
Si     0.166650000000     0.416150000000     0.145733333333   
O      0.209300000000     0.167600000000     0.332800000000   
Si     0.250500000000     0.166650000000     0.312400000000   
O      0.041700000000     0.209300000000     0.166133333333   
Si     0.083850000000     0.250500000000     0.145733333333   
O      0.084650000000     0.292350000000     0.333333333333   
O      0.124650000000     0.375350000000     0.333333333333   
O      0.041700000000     0.332400000000     0.666133333333   
O      0.084050000000     0.333350000000     0.583333333333   
O      0.250000000000     0.000000000000     0.333333333333   
O      0.291650000000     0.000000000000     0.416666666667   
Si     0.083850000000     0.333350000000     0.645733333333   
Si     0.291400000000     0.000000000000     0.354300000000   
O      0.292300000000     0.084650000000     0.500000000000   
O      0.249300000000     0.124650000000     0.500000000000   
O      0.209300000000     0.041700000000     0.499466666667   
O      0.250700000000     0.084050000000     0.416666666667   
O      0.250000000000     0.250000000000     0.500000000000   
O      0.291650000000     0.291650000000     0.583333333333   
Si     0.250500000000     0.083850000000     0.479066666667   
Si     0.291400000000     0.291400000000     0.520966666667   
O      0.207650000000     0.292300000000     0.333333333333   
O      0.124650000000     0.249300000000     0.333333333333   
O      0.167600000000     0.209300000000     0.666133333333   
O      0.166650000000     0.250700000000     0.583333333333   
O      0.000000000000     0.250000000000     0.333333333333   
O      0.000000000000     0.291650000000     0.416666666667   
Si     0.166650000000     0.250500000000     0.645733333333   
Si     0.000000000000     0.291400000000     0.354300000000   
O      0.415350000000     0.207650000000     0.500000000000   
O      0.375350000000     0.124650000000     0.500000000000   
O      0.458300000000     0.167600000000     0.499466666667   
O      0.415950000000     0.166650000000     0.416666666667   
O      0.250000000000     0.000000000000     0.500000000000   
O      0.208350000000     0.000000000000     0.583333333333   
Si     0.416150000000     0.166650000000     0.479066666667   
Si     0.208600000000     0.000000000000     0.520966666667   
O      0.207700000000     0.415350000000     0.333333333333   
O      0.250700000000     0.375350000000     0.333333333333   
O      0.290700000000     0.458300000000     0.666133333333   
O      0.249300000000     0.415950000000     0.583333333333   
O      0.250000000000     0.250000000000     0.333333333333   
O      0.208350000000     0.208350000000     0.416666666667   
Si     0.249500000000     0.416150000000     0.645733333333   
Si     0.208600000000     0.208600000000     0.354300000000   
O      0.292350000000     0.207700000000     0.500000000000   
O      0.375350000000     0.250700000000     0.500000000000   
O      0.332400000000     0.290700000000     0.499466666667   
O      0.333350000000     0.249300000000     0.416666666667   
O      0.000000000000     0.250000000000     0.500000000000   
O      0.000000000000     0.208350000000     0.583333333333   
Si     0.333350000000     0.249500000000     0.479066666667   
Si     0.000000000000     0.208600000000     0.520966666667   
O      0.167600000000     0.458300000000     0.333866666667   
O      0.166650000000     0.415950000000     0.416666666667   
Si     0.166650000000     0.416150000000     0.354266666667   
Si     0.000000000000     0.208600000000     0.645700000000   
O      0.209300000000     0.167600000000     0.500533333333   
O      0.250700000000     0.166650000000     0.583333333333   
Si     0.250500000000     0.166650000000     0.520933333333   
Si     0.291400000000     0.000000000000     0.479033333333   
O      0.041700000000     0.209300000000     0.333866666667   
O      0.084050000000     0.250700000000     0.416666666667   
Si     0.083850000000     0.250500000000     0.354266666667   
Si     0.291400000000     0.291400000000     0.645700000000   
O      0.332400000000     0.041700000000     0.500533333333   
O      0.333350000000     0.084050000000     0.583333333333   
Si     0.333350000000     0.083850000000     0.520933333333   
Si     0.000000000000     0.291400000000     0.479033333333   
O      0.290700000000     0.332400000000     0.333866666667   
O      0.249300000000     0.333350000000     0.416666666667   
Si     0.249500000000     0.333350000000     0.354266666667   
Si     0.208600000000     0.000000000000     0.645700000000   
O      0.458300000000     0.290700000000     0.500533333333   
O      0.415950000000     0.249300000000     0.583333333333   
Si     0.416150000000     0.249500000000     0.520933333333   
Si     0.208600000000     0.208600000000     0.479033333333   
O      0.415350000000     0.207650000000     0.333333333333   
O      0.375350000000     0.124650000000     0.333333333333   
O      0.458300000000     0.167600000000     0.333866666667   
Si     0.416150000000     0.166650000000     0.354266666667   
O      0.207700000000     0.415350000000     0.500000000000   
O      0.250700000000     0.375350000000     0.500000000000   
O      0.290700000000     0.458300000000     0.500533333333   
Si     0.249500000000     0.416150000000     0.520933333333   
O      0.292350000000     0.207700000000     0.333333333333   
O      0.375350000000     0.250700000000     0.333333333333   
O      0.332400000000     0.290700000000     0.333866666667   
Si     0.333350000000     0.249500000000     0.354266666667   
O      0.084650000000     0.292350000000     0.500000000000   
O      0.124650000000     0.375350000000     0.500000000000   
O      0.041700000000     0.332400000000     0.500533333333   
Si     0.083850000000     0.333350000000     0.520933333333   
O      0.292300000000     0.084650000000     0.333333333333   
O      0.249300000000     0.124650000000     0.333333333333   
O      0.209300000000     0.041700000000     0.333866666667   
Si     0.250500000000     0.083850000000     0.354266666667   
O      0.207650000000     0.292300000000     0.500000000000   
O      0.124650000000     0.249300000000     0.500000000000   
O      0.167600000000     0.209300000000     0.500533333333   
Si     0.166650000000     0.250500000000     0.520933333333   
O      0.332400000000     0.041700000000     0.666133333333   
Si     0.333350000000     0.083850000000     0.645733333333   
O      0.290700000000     0.332400000000     0.499466666667   
Si     0.249500000000     0.333350000000     0.479066666667   
O      0.458300000000     0.290700000000     0.666133333333   
Si     0.416150000000     0.249500000000     0.645733333333   
O      0.167600000000     0.458300000000     0.499466666667   
Si     0.166650000000     0.416150000000     0.479066666667   
O      0.209300000000     0.167600000000     0.666133333333   
Si     0.250500000000     0.166650000000     0.645733333333   
O      0.041700000000     0.209300000000     0.499466666667   
Si     0.083850000000     0.250500000000     0.479066666667   
O      0.084650000000     0.292350000000     0.666666666667   
O      0.124650000000     0.375350000000     0.666666666667   
O      0.041700000000     0.332400000000     0.999466666667   
O      0.084050000000     0.333350000000     0.916666666667   
O      0.250000000000     0.000000000000     0.666666666667   
O      0.291650000000     0.000000000000     0.750000000000   
Si     0.083850000000     0.333350000000     0.979066666667   
Si     0.291400000000     0.000000000000     0.687633333333   
O      0.292300000000     0.084650000000     0.833333333333   
O      0.249300000000     0.124650000000     0.833333333333   
O      0.209300000000     0.041700000000     0.832800000000   
O      0.250700000000     0.084050000000     0.750000000000   
O      0.250000000000     0.250000000000     0.833333333333   
O      0.291650000000     0.291650000000     0.916666666667   
Si     0.250500000000     0.083850000000     0.812400000000   
Si     0.291400000000     0.291400000000     0.854300000000   
O      0.207650000000     0.292300000000     0.666666666667   
O      0.124650000000     0.249300000000     0.666666666667   
O      0.167600000000     0.209300000000     0.999466666667   
O      0.166650000000     0.250700000000     0.916666666667   
O      0.000000000000     0.250000000000     0.666666666667   
O      0.000000000000     0.291650000000     0.750000000000   
Si     0.166650000000     0.250500000000     0.979066666667   
Si     0.000000000000     0.291400000000     0.687633333333   
O      0.415350000000     0.207650000000     0.833333333333   
O      0.375350000000     0.124650000000     0.833333333333   
O      0.458300000000     0.167600000000     0.832800000000   
O      0.415950000000     0.166650000000     0.750000000000   
O      0.250000000000     0.000000000000     0.833333333333   
O      0.208350000000     0.000000000000     0.916666666667   
Si     0.416150000000     0.166650000000     0.812400000000   
Si     0.208600000000     0.000000000000     0.854300000000   
O      0.207700000000     0.415350000000     0.666666666667   
O      0.250700000000     0.375350000000     0.666666666667   
O      0.290700000000     0.458300000000     0.999466666667   
O      0.249300000000     0.415950000000     0.916666666667   
O      0.250000000000     0.250000000000     0.666666666667   
O      0.208350000000     0.208350000000     0.750000000000   
Si     0.249500000000     0.416150000000     0.979066666667   
Si     0.208600000000     0.208600000000     0.687633333333   
O      0.292350000000     0.207700000000     0.833333333333   
O      0.375350000000     0.250700000000     0.833333333333   
O      0.332400000000     0.290700000000     0.832800000000   
O      0.333350000000     0.249300000000     0.750000000000   
O      0.000000000000     0.250000000000     0.833333333333   
O      0.000000000000     0.208350000000     0.916666666667   
Si     0.333350000000     0.249500000000     0.812400000000   
Si     0.000000000000     0.208600000000     0.854300000000   
O      0.167600000000     0.458300000000     0.667200000000   
O      0.166650000000     0.415950000000     0.750000000000   
Si     0.166650000000     0.416150000000     0.687600000000   
Si     0.000000000000     0.208600000000     0.979033333333   
O      0.209300000000     0.167600000000     0.833866666667   
O      0.250700000000     0.166650000000     0.916666666667   
Si     0.250500000000     0.166650000000     0.854266666667   
Si     0.291400000000     0.000000000000     0.812366666667   
O      0.041700000000     0.209300000000     0.667200000000   
O      0.084050000000     0.250700000000     0.750000000000   
Si     0.083850000000     0.250500000000     0.687600000000   
Si     0.291400000000     0.291400000000     0.979033333333   
O      0.332400000000     0.041700000000     0.833866666667   
O      0.333350000000     0.084050000000     0.916666666667   
Si     0.333350000000     0.083850000000     0.854266666667   
Si     0.000000000000     0.291400000000     0.812366666667   
O      0.290700000000     0.332400000000     0.667200000000   
O      0.249300000000     0.333350000000     0.750000000000   
Si     0.249500000000     0.333350000000     0.687600000000   
Si     0.208600000000     0.000000000000     0.979033333333   
O      0.458300000000     0.290700000000     0.833866666667   
O      0.415950000000     0.249300000000     0.916666666667   
Si     0.416150000000     0.249500000000     0.854266666667   
Si     0.208600000000     0.208600000000     0.812366666667   
O      0.415350000000     0.207650000000     0.666666666667   
O      0.375350000000     0.124650000000     0.666666666667   
O      0.458300000000     0.167600000000     0.667200000000   
Si     0.416150000000     0.166650000000     0.687600000000   
O      0.207700000000     0.415350000000     0.833333333333   
O      0.250700000000     0.375350000000     0.833333333333   
O      0.290700000000     0.458300000000     0.833866666667   
Si     0.249500000000     0.416150000000     0.854266666667   
O      0.292350000000     0.207700000000     0.666666666667   
O      0.375350000000     0.250700000000     0.666666666667   
O      0.332400000000     0.290700000000     0.667200000000   
Si     0.333350000000     0.249500000000     0.687600000000   
O      0.084650000000     0.292350000000     0.833333333333   
O      0.124650000000     0.375350000000     0.833333333333   
O      0.041700000000     0.332400000000     0.833866666667   
Si     0.083850000000     0.333350000000     0.854266666667   
O      0.292300000000     0.084650000000     0.666666666667   
O      0.249300000000     0.124650000000     0.666666666667   
O      0.209300000000     0.041700000000     0.667200000000   
Si     0.250500000000     0.083850000000     0.687600000000   
O      0.207650000000     0.292300000000     0.833333333333   
O      0.124650000000     0.249300000000     0.833333333333   
O      0.167600000000     0.209300000000     0.833866666667   
Si     0.166650000000     0.250500000000     0.854266666667   
O      0.332400000000     0.041700000000     0.999466666667   
Si     0.333350000000     0.083850000000     0.979066666667   
O      0.290700000000     0.332400000000     0.832800000000   
Si     0.249500000000     0.333350000000     0.812400000000   
O      0.458300000000     0.290700000000     0.999466666667   
Si     0.416150000000     0.249500000000     0.979066666667   
O      0.167600000000     0.458300000000     0.832800000000   
Si     0.166650000000     0.416150000000     0.812400000000   
O      0.209300000000     0.167600000000     0.999466666667   
Si     0.250500000000     0.166650000000     0.979066666667   
O      0.041700000000     0.209300000000     0.832800000000   
Si     0.083850000000     0.250500000000     0.812400000000   
O      0.084650000000     0.792350000000     0.000000000000   
O      0.124650000000     0.875350000000     0.000000000000   
O      0.041700000000     0.832400000000     0.332800000000   
O      0.084050000000     0.833350000000     0.250000000000   
O      0.250000000000     0.500000000000     0.000000000000   
O      0.291650000000     0.500000000000     0.083333333333   
Si     0.083850000000     0.833350000000     0.312400000000   
Si     0.291400000000     0.500000000000     0.020966666667   
O      0.292300000000     0.584650000000     0.166666666667   
O      0.249300000000     0.624650000000     0.166666666667   
O      0.209300000000     0.541700000000     0.166133333333   
O      0.250700000000     0.584050000000     0.083333333333   
O      0.250000000000     0.750000000000     0.166666666667   
O      0.291650000000     0.791650000000     0.250000000000   
Si     0.250500000000     0.583850000000     0.145733333333   
Si     0.291400000000     0.791400000000     0.187633333333   
O      0.207650000000     0.792300000000     0.000000000000   
O      0.124650000000     0.749300000000     0.000000000000   
O      0.167600000000     0.709300000000     0.332800000000   
O      0.166650000000     0.750700000000     0.250000000000   
O      0.000000000000     0.750000000000     0.000000000000   
O      0.000000000000     0.791650000000     0.083333333333   
Si     0.166650000000     0.750500000000     0.312400000000   
Si     0.000000000000     0.791400000000     0.020966666667   
O      0.415350000000     0.707650000000     0.166666666667   
O      0.375350000000     0.624650000000     0.166666666667   
O      0.458300000000     0.667600000000     0.166133333333   
O      0.415950000000     0.666650000000     0.083333333333   
O      0.250000000000     0.500000000000     0.166666666667   
O      0.208350000000     0.500000000000     0.250000000000   
Si     0.416150000000     0.666650000000     0.145733333333   
Si     0.208600000000     0.500000000000     0.187633333333   
O      0.207700000000     0.915350000000     0.000000000000   
O      0.250700000000     0.875350000000     0.000000000000   
O      0.290700000000     0.958300000000     0.332800000000   
O      0.249300000000     0.915950000000     0.250000000000   
O      0.250000000000     0.750000000000     0.000000000000   
O      0.208350000000     0.708350000000     0.083333333333   
Si     0.249500000000     0.916150000000     0.312400000000   
Si     0.208600000000     0.708600000000     0.020966666667   
O      0.292350000000     0.707700000000     0.166666666667   
O      0.375350000000     0.750700000000     0.166666666667   
O      0.332400000000     0.790700000000     0.166133333333   
O      0.333350000000     0.749300000000     0.083333333333   
O      0.000000000000     0.750000000000     0.166666666667   
O      0.000000000000     0.708350000000     0.250000000000   
Si     0.333350000000     0.749500000000     0.145733333333   
Si     0.000000000000     0.708600000000     0.187633333333   
O      0.167600000000     0.958300000000     0.000533333333   
O      0.166650000000     0.915950000000     0.083333333333   
Si     0.166650000000     0.916150000000     0.020933333333   
Si     0.000000000000     0.708600000000     0.312366666667   
O      0.209300000000     0.667600000000     0.167200000000   
O      0.250700000000     0.666650000000     0.250000000000   
Si     0.250500000000     0.666650000000     0.187600000000   
Si     0.291400000000     0.500000000000     0.145700000000   
O      0.041700000000     0.709300000000     0.000533333333   
O      0.084050000000     0.750700000000     0.083333333333   
Si     0.083850000000     0.750500000000     0.020933333333   
Si     0.291400000000     0.791400000000     0.312366666667   
O      0.332400000000     0.541700000000     0.167200000000   
O      0.333350000000     0.584050000000     0.250000000000   
Si     0.333350000000     0.583850000000     0.187600000000   
Si     0.000000000000     0.791400000000     0.145700000000   
O      0.290700000000     0.832400000000     0.000533333333   
O      0.249300000000     0.833350000000     0.083333333333   
Si     0.249500000000     0.833350000000     0.020933333333   
Si     0.208600000000     0.500000000000     0.312366666667   
O      0.458300000000     0.790700000000     0.167200000000   
O      0.415950000000     0.749300000000     0.250000000000   
Si     0.416150000000     0.749500000000     0.187600000000   
Si     0.208600000000     0.708600000000     0.145700000000   
O      0.415350000000     0.707650000000     0.000000000000   
O      0.375350000000     0.624650000000     0.000000000000   
O      0.458300000000     0.667600000000     0.000533333333   
Si     0.416150000000     0.666650000000     0.020933333333   
O      0.207700000000     0.915350000000     0.166666666667   
O      0.250700000000     0.875350000000     0.166666666667   
O      0.290700000000     0.958300000000     0.167200000000   
Si     0.249500000000     0.916150000000     0.187600000000   
O      0.292350000000     0.707700000000     0.000000000000   
O      0.375350000000     0.750700000000     0.000000000000   
O      0.332400000000     0.790700000000     0.000533333333   
Si     0.333350000000     0.749500000000     0.020933333333   
O      0.084650000000     0.792350000000     0.166666666667   
O      0.124650000000     0.875350000000     0.166666666667   
O      0.041700000000     0.832400000000     0.167200000000   
Si     0.083850000000     0.833350000000     0.187600000000   
O      0.292300000000     0.584650000000     0.000000000000   
O      0.249300000000     0.624650000000     0.000000000000   
O      0.209300000000     0.541700000000     0.000533333333   
Si     0.250500000000     0.583850000000     0.020933333333   
O      0.207650000000     0.792300000000     0.166666666667   
O      0.124650000000     0.749300000000     0.166666666667   
O      0.167600000000     0.709300000000     0.167200000000   
Si     0.166650000000     0.750500000000     0.187600000000   
O      0.332400000000     0.541700000000     0.332800000000   
Si     0.333350000000     0.583850000000     0.312400000000   
O      0.290700000000     0.832400000000     0.166133333333   
Si     0.249500000000     0.833350000000     0.145733333333   
O      0.458300000000     0.790700000000     0.332800000000   
Si     0.416150000000     0.749500000000     0.312400000000   
O      0.167600000000     0.958300000000     0.166133333333   
Si     0.166650000000     0.916150000000     0.145733333333   
O      0.209300000000     0.667600000000     0.332800000000   
Si     0.250500000000     0.666650000000     0.312400000000   
O      0.041700000000     0.709300000000     0.166133333333   
Si     0.083850000000     0.750500000000     0.145733333333   
O      0.084650000000     0.792350000000     0.333333333333   
O      0.124650000000     0.875350000000     0.333333333333   
O      0.041700000000     0.832400000000     0.666133333333   
O      0.084050000000     0.833350000000     0.583333333333   
O      0.250000000000     0.500000000000     0.333333333333   
O      0.291650000000     0.500000000000     0.416666666667   
Si     0.083850000000     0.833350000000     0.645733333333   
Si     0.291400000000     0.500000000000     0.354300000000   
O      0.292300000000     0.584650000000     0.500000000000   
O      0.249300000000     0.624650000000     0.500000000000   
O      0.209300000000     0.541700000000     0.499466666667   
O      0.250700000000     0.584050000000     0.416666666667   
O      0.250000000000     0.750000000000     0.500000000000   
O      0.291650000000     0.791650000000     0.583333333333   
Si     0.250500000000     0.583850000000     0.479066666667   
Si     0.291400000000     0.791400000000     0.520966666667   
O      0.207650000000     0.792300000000     0.333333333333   
O      0.124650000000     0.749300000000     0.333333333333   
O      0.167600000000     0.709300000000     0.666133333333   
O      0.166650000000     0.750700000000     0.583333333333   
O      0.000000000000     0.750000000000     0.333333333333   
O      0.000000000000     0.791650000000     0.416666666667   
Si     0.166650000000     0.750500000000     0.645733333333   
Si     0.000000000000     0.791400000000     0.354300000000   
O      0.415350000000     0.707650000000     0.500000000000   
O      0.375350000000     0.624650000000     0.500000000000   
O      0.458300000000     0.667600000000     0.499466666667   
O      0.415950000000     0.666650000000     0.416666666667   
O      0.250000000000     0.500000000000     0.500000000000   
O      0.208350000000     0.500000000000     0.583333333333   
Si     0.416150000000     0.666650000000     0.479066666667   
Si     0.208600000000     0.500000000000     0.520966666667   
O      0.207700000000     0.915350000000     0.333333333333   
O      0.250700000000     0.875350000000     0.333333333333   
O      0.290700000000     0.958300000000     0.666133333333   
O      0.249300000000     0.915950000000     0.583333333333   
O      0.250000000000     0.750000000000     0.333333333333   
O      0.208350000000     0.708350000000     0.416666666667   
Si     0.249500000000     0.916150000000     0.645733333333   
Si     0.208600000000     0.708600000000     0.354300000000   