%BLOCK LATTICE_CART
ang    # angstrom units
  13.680610000000    0.000000000000     0.000000000000   
 -6.840305000000     11.847755799267    0.000000000000   
  0.000000000000     0.000000000000     44.160070000000  
%ENDBLOCK LATTICE_CART

%BLOCK POSITIONS_FRAC
Si     0.333230000000     0.075093333333     0.257350000000   
Si     0.333240000000     0.075323333333     0.186820000000   
Si     0.333216666667     0.075236666667     0.035060000000   
O      0.000010000000     0.085150000000     0.222110000000   
O      0.040366666667     0.080733333333     0.266510000000   
O      0.301246666667     0.032086666667     0.263330000000   
O      0.324740000000     0.102653333333     0.277550000000   
O      0.300636666667     0.032696666667     0.180420000000   
O      0.325983333333     0.103760000000     0.166670000000   
O      0.040026666667     0.080053333333     0.177740000000   
O      0.000000000000     0.085986666667     0.000000000000   
O      0.040316666667     0.080633333333     0.043980000000   
O      0.301176666667     0.032156666667     0.040640000000   
Si     0.258240000000     0.258136666667     0.257350000000   
Si     0.258010000000     0.257916666667     0.186820000000   
Si     0.258096666667     0.257980000000     0.035060000000   
O      0.248183333333     0.248193333333     0.222110000000   
O      0.252600000000     0.292966666667     0.266510000000   
O      0.301246666667     0.269160000000     0.263330000000   
O      0.230680000000     0.222086666667     0.277550000000   
O      0.300636666667     0.267940000000     0.180420000000   
O      0.229573333333     0.222223333333     0.166670000000   
O      0.253280000000     0.293306666667     0.177740000000   
O      0.247346666667     0.247346666667     0.000000000000   
O      0.252700000000     0.293016666667     0.043980000000   
O      0.301176666667     0.269020000000     0.040640000000   
Si     0.075196666667     0.000103333333     0.257350000000   
Si     0.075416666667     0.000093333333     0.186820000000   
Si     0.075353333333     0.000116666667     0.035060000000   
O      0.085140000000     0.333323333333     0.222110000000   
O      0.040366666667     0.292966666667     0.266510000000   
O      0.064173333333     0.032086666667     0.263330000000   
O      0.111246666667     0.008593333333     0.277550000000   
O      0.065393333333     0.032696666667     0.180420000000   
O      0.111110000000     0.007350000000     0.166670000000   
O      0.040026666667     0.293306666667     0.177740000000   
O      0.085986666667     0.000000000000     0.000000000000   
O      0.040316666667     0.293016666667     0.043980000000   
O      0.064313333333     0.032156666667     0.040640000000   
Si     0.075093333333     0.333230000000     0.742650000000   
Si     0.075323333333     0.333240000000     0.813180000000   
Si     0.075236666667     0.333216666667     0.964940000000   
O      0.085150000000     0.000010000000     0.777890000000   
O      0.080733333333     0.040366666667     0.733490000000   
O      0.032086666667     0.301246666667     0.736670000000   
O      0.102653333333     0.324740000000     0.722450000000   
O      0.032696666667     0.300636666667     0.819580000000   
O      0.103760000000     0.325983333333     0.833330000000   
O      0.080053333333     0.040026666667     0.822260000000   
O      0.080633333333     0.040316666667     0.956020000000   
O      0.032156666667     0.301176666667     0.959360000000   
Si     0.000103333333     0.075196666667     0.742650000000   
Si     0.000093333333     0.075416666667     0.813180000000   
Si     0.000116666667     0.075353333333     0.964940000000   
O      0.333323333333     0.085140000000     0.777890000000   
O      0.292966666667     0.040366666667     0.733490000000   
O      0.032086666667     0.064173333333     0.736670000000   
O      0.008593333333     0.111246666667     0.722450000000   
O      0.032696666667     0.065393333333     0.819580000000   
O      0.007350000000     0.111110000000     0.833330000000   
O      0.293306666667     0.040026666667     0.822260000000   
O      0.293016666667     0.040316666667     0.956020000000   
O      0.032156666667     0.064313333333     0.959360000000   
Si     0.258136666667     0.258240000000     0.742650000000   
Si     0.257916666667     0.258010000000     0.813180000000   
Si     0.257980000000     0.258096666667     0.964940000000   
O      0.248193333333     0.248183333333     0.777890000000   
O      0.292966666667     0.252600000000     0.733490000000   
O      0.269160000000     0.301246666667     0.736670000000   
O      0.222086666667     0.230680000000     0.722450000000   
O      0.267940000000     0.300636666667     0.819580000000   
O      0.222223333333     0.229573333333     0.833330000000   
O      0.293306666667     0.253280000000     0.822260000000   
O      0.293016666667     0.252700000000     0.956020000000   
O      0.269020000000     0.301176666667     0.959360000000   
Si     0.000103333333     0.258240000000     0.742650000000   
Si     0.000093333333     0.258010000000     0.813180000000   
Si     0.000116666667     0.258096666667     0.964940000000   
O      0.333323333333     0.248183333333     0.777890000000   
O      0.008593333333     0.230680000000     0.722450000000   
O      0.007350000000     0.229573333333     0.833330000000   
O      0.000000000000     0.247346666667     0.000000000000   
Si     0.075093333333     0.075196666667     0.742650000000   
Si     0.075323333333     0.075416666667     0.813180000000   
Si     0.075236666667     0.075353333333     0.964940000000   
O      0.085150000000     0.085140000000     0.777890000000   
O      0.102653333333     0.111246666667     0.722450000000   
O      0.103760000000     0.111110000000     0.833330000000   
O      0.085986666667     0.085986666667     0.000000000000   
Si     0.258136666667     0.333230000000     0.742650000000   
Si     0.257916666667     0.333240000000     0.813180000000   
Si     0.257980000000     0.333216666667     0.964940000000   
O      0.248193333333     0.000010000000     0.777890000000   
O      0.222086666667     0.324740000000     0.722450000000   
O      0.222223333333     0.325983333333     0.833330000000   
O      0.247346666667     0.000000000000     0.000000000000   
Si     0.258240000000     0.000103333333     0.257350000000   
Si     0.258010000000     0.000093333333     0.186820000000   
Si     0.258096666667     0.000116666667     0.035060000000   
O      0.248183333333     0.333323333333     0.222110000000   
O      0.230680000000     0.008593333333     0.277550000000   
O      0.229573333333     0.007350000000     0.166670000000   
Si     0.333230000000     0.258136666667     0.257350000000   
Si     0.333240000000     0.257916666667     0.186820000000   
Si     0.333216666667     0.257980000000     0.035060000000   
O      0.000010000000     0.248193333333     0.222110000000   
O      0.324740000000     0.222086666667     0.277550000000   
O      0.325983333333     0.222223333333     0.166670000000   
Si     0.075196666667     0.075093333333     0.257350000000   
Si     0.075416666667     0.075323333333     0.186820000000   
Si     0.075353333333     0.075236666667     0.035060000000   
O      0.085140000000     0.085150000000     0.222110000000   
O      0.111246666667     0.102653333333     0.277550000000   
O      0.111110000000     0.103760000000     0.166670000000   
Si     0.222118888889     0.186204444444     0.590683333333   
Si     0.222128888889     0.186434444444     0.520153333333   
Si     0.222105555556     0.186347777778     0.368393333333   
O      0.222232222222     0.196261111111     0.555443333333   
O      0.262588888889     0.191844444444     0.599843333333   
O      0.190135555556     0.143197777778     0.596663333333   
O      0.213628888889     0.213764444444     0.610883333333   
O      0.189525555556     0.143807777778     0.513753333333   
O      0.214872222222     0.214871111111     0.500003333333   
O      0.262248888889     0.191164444444     0.511073333333   
O      0.222222222222     0.197097777778     0.333333333333   
O      0.262538888889     0.191744444444     0.377313333333   
O      0.190065555556     0.143267777778     0.373973333333   
Si     0.147128888889     0.035914444444     0.590683333333   
Si     0.146898888889     0.035694444444     0.520153333333   
Si     0.146985555556     0.035757777778     0.368393333333   
O      0.137072222222     0.025971111111     0.555443333333   
O      0.141488888889     0.070744444444     0.599843333333   
O      0.190135555556     0.046937777778     0.596663333333   
O      0.119568888889     0.333197777778     0.610883333333   
O      0.189525555556     0.045717777778     0.513753333333   
O      0.118462222222     0.000001111111     0.500003333333   
O      0.142168888889     0.071084444444     0.511073333333   
O      0.136235555556     0.025124444444     0.333333333333   
O      0.141588888889     0.070794444444     0.377313333333   
O      0.190065555556     0.046797777778     0.373973333333   
Si     0.297418888889     0.111214444444     0.590683333333   
Si     0.297638888889     0.111204444444     0.520153333333   
Si     0.297575555556     0.111227777778     0.368393333333   
O      0.307362222222     0.111101111111     0.555443333333   
O      0.262588888889     0.070744444444     0.599843333333   
O      0.286395555556     0.143197777778     0.596663333333   
O      0.000135555556     0.119704444444     0.610883333333   
O      0.287615555556     0.143807777778     0.513753333333   
O      0.333332222222     0.118461111111     0.500003333333   
O      0.262248888889     0.071084444444     0.511073333333   
O      0.308208888889     0.111111111111     0.333333333333   
O      0.262538888889     0.070794444444     0.377313333333   
O      0.286535555556     0.143267777778     0.373973333333   
Si     0.297315555556     0.111007777778     0.075983333333   
Si     0.297545555556     0.111017777778     0.146513333333   
Si     0.297458888889     0.110994444444     0.298273333333   
O      0.307372222222     0.111121111111     0.111223333333   
O      0.302955555556     0.151477777778     0.066823333333   
O      0.254308888889     0.079024444444     0.070003333333   
O      0.324875555556     0.102517777778     0.055783333333   
O      0.254918888889     0.078414444444     0.152913333333   
O      0.302275555556     0.151137777778     0.155593333333   
O      0.302855555556     0.151427777778     0.289353333333   
O      0.254378888889     0.078954444444     0.292693333333   
Si     0.222325555556     0.186307777778     0.075983333333   
Si     0.222315555556     0.186527777778     0.146513333333   
Si     0.222338888889     0.186464444444     0.298273333333   
O      0.222212222222     0.196251111111     0.111223333333   
O      0.181855555556     0.151477777778     0.066823333333   
O      0.254308888889     0.175284444444     0.070003333333   
O      0.230815555556     0.222357777778     0.055783333333   
O      0.254918888889     0.176504444444     0.152913333333   
O      0.182195555556     0.151137777778     0.155593333333   
O      0.181905555556     0.151427777778     0.289353333333   
O      0.254378888889     0.175424444444     0.292693333333   
Si     0.147025555556     0.036017777778     0.075983333333   
Si     0.146805555556     0.035787777778     0.146513333333   
Si     0.146868888889     0.035874444444     0.298273333333   
O      0.137082222222     0.025961111111     0.111223333333   
O      0.181855555556     0.030377777778     0.066823333333   
O      0.158048888889     0.079024444444     0.070003333333   
O      0.110975555556     0.008457777778     0.055783333333   
O      0.156828888889     0.078414444444     0.152913333333   
O      0.182195555556     0.031057777778     0.155593333333   
O      0.181905555556     0.030477777778     0.289353333333   
O      0.157908888889     0.078954444444     0.292693333333   
Si     0.222325555556     0.036017777778     0.075983333333   
Si     0.222315555556     0.035787777778     0.146513333333   
Si     0.222338888889     0.035874444444     0.298273333333   
O      0.222212222222     0.025961111111     0.111223333333   
O      0.230815555556     0.008457777778     0.055783333333   
O      0.222222222222     0.025124444444     0.333333333333   
Si     0.297315555556     0.186307777778     0.075983333333   
Si     0.297545555556     0.186527777778     0.146513333333   
Si     0.297458888889     0.186464444444     0.298273333333   
O      0.307372222222     0.196251111111     0.111223333333   
O      0.324875555556     0.222357777778     0.055783333333   
O      0.308208888889     0.197097777778     0.333333333333   
Si     0.147025555556     0.111007777778     0.075983333333   
Si     0.146805555556     0.111017777778     0.146513333333   
Si     0.146868888889     0.110994444444     0.298273333333   
O      0.137082222222     0.111121111111     0.111223333333   
O      0.110975555556     0.102517777778     0.055783333333   
O      0.136235555556     0.111111111111     0.333333333333   
Si     0.147128888889     0.111214444444     0.590683333333   
Si     0.146898888889     0.111204444444     0.520153333333   
Si     0.146985555556     0.111227777778     0.368393333333   
O      0.137072222222     0.111101111111     0.555443333333   
O      0.119568888889     0.119704444444     0.610883333333   
O      0.118462222222     0.118461111111     0.500003333333   
Si     0.222118888889     0.035914444444     0.590683333333   
Si     0.222128888889     0.035694444444     0.520153333333   
Si     0.222105555556     0.035757777778     0.368393333333   
O      0.222232222222     0.025971111111     0.555443333333   
O      0.213628888889     0.333197777778     0.610883333333   
O      0.214872222222     0.000001111111     0.500003333333   
Si     0.297418888889     0.186204444444     0.590683333333   
Si     0.297638888889     0.186434444444     0.520153333333   
Si     0.297575555556     0.186347777778     0.368393333333   
O      0.307362222222     0.196261111111     0.555443333333   
O      0.000135555556     0.213764444444     0.610883333333   
O      0.333332222222     0.214871111111     0.500003333333   
Si     0.111007777778     0.297315555556     0.924016666667   
Si     0.111017777778     0.297545555556     0.853486666667   
Si     0.110994444444     0.297458888889     0.701726666667   
O      0.111121111111     0.307372222222     0.888776666667   
O      0.151477777778     0.302955555556     0.933176666667   
O      0.079024444444     0.254308888889     0.929996666667   
O      0.102517777778     0.324875555556     0.944216666667   
O      0.078414444444     0.254918888889     0.847086666667   
O      0.151137777778     0.302275555556     0.844406666667   
O      0.111111111111     0.308208888889     0.666666666667   
O      0.151427777778     0.302855555556     0.710646666667   
O      0.078954444444     0.254378888889     0.707306666667   
Si     0.036017777778     0.147025555556     0.924016666667   
Si     0.035787777778     0.146805555556     0.853486666667   
Si     0.035874444444     0.146868888889     0.701726666667   
O      0.025961111111     0.137082222222     0.888776666667   
O      0.030377777778     0.181855555556     0.933176666667   
O      0.079024444444     0.158048888889     0.929996666667   
O      0.008457777778     0.110975555556     0.944216666667   
O      0.078414444444     0.156828888889     0.847086666667   
O      0.031057777778     0.182195555556     0.844406666667   
O      0.025124444444     0.136235555556     0.666666666667   
O      0.030477777778     0.181905555556     0.710646666667   
O      0.078954444444     0.157908888889     0.707306666667   
Si     0.186307777778     0.222325555556     0.924016666667   
Si     0.186527777778     0.222315555556     0.853486666667   
Si     0.186464444444     0.222338888889     0.701726666667   
O      0.196251111111     0.222212222222     0.888776666667   
O      0.151477777778     0.181855555556     0.933176666667   
O      0.175284444444     0.254308888889     0.929996666667   
O      0.222357777778     0.230815555556     0.944216666667   
O      0.176504444444     0.254918888889     0.847086666667   
O      0.151137777778     0.182195555556     0.844406666667   
O      0.197097777778     0.222222222222     0.666666666667   
O      0.151427777778     0.181905555556     0.710646666667   
O      0.175424444444     0.254378888889     0.707306666667   
Si     0.186204444444     0.222118888889     0.409316666667   
Si     0.186434444444     0.222128888889     0.479846666667   
Si     0.186347777778     0.222105555556     0.631606666667   
O      0.196261111111     0.222232222222     0.444556666667   
O      0.191844444444     0.262588888889     0.400156666667   
O      0.143197777778     0.190135555556     0.403336666667   
O      0.213764444444     0.213628888889     0.389116666667   
O      0.143807777778     0.189525555556     0.486246666667   
O      0.191164444444     0.262248888889     0.488926666667   
O      0.191744444444     0.262538888889     0.622686666667   
O      0.143267777778     0.190065555556     0.626026666667   
Si     0.111214444444     0.297418888889     0.409316666667   
Si     0.111204444444     0.297638888889     0.479846666667   
Si     0.111227777778     0.297575555556     0.631606666667   
O      0.111101111111     0.307362222222     0.444556666667   
O      0.070744444444     0.262588888889     0.400156666667   
O      0.143197777778     0.286395555556     0.403336666667   
O      0.119704444444     0.000135555556     0.389116666667   
O      0.143807777778     0.287615555556     0.486246666667   
O      0.118461111111     0.333332222222     0.499996666667   
O      0.071084444444     0.262248888889     0.488926666667   
O      0.070794444444     0.262538888889     0.622686666667   
O      0.143267777778     0.286535555556     0.626026666667   
Si     0.035914444444     0.147128888889     0.409316666667   
Si     0.035694444444     0.146898888889     0.479846666667   
Si     0.035757777778     0.146985555556     0.631606666667   
O      0.025971111111     0.137072222222     0.444556666667   
O      0.070744444444     0.141488888889     0.400156666667   
O      0.046937777778     0.190135555556     0.403336666667   
O      0.333197777778     0.119568888889     0.389116666667   
O      0.045717777778     0.189525555556     0.486246666667   
O      0.000001111111     0.118462222222     0.499996666667   
O      0.071084444444     0.142168888889     0.488926666667   
O      0.070794444444     0.141588888889     0.622686666667   
O      0.046797777778     0.190065555556     0.626026666667   
Si     0.111214444444     0.147128888889     0.409316666667   
Si     0.111204444444     0.146898888889     0.479846666667   
Si     0.111227777778     0.146985555556     0.631606666667   
O      0.111101111111     0.137072222222     0.444556666667   
O      0.119704444444     0.119568888889     0.389116666667   
O      0.111111111111     0.136235555556     0.666666666667   
Si     0.186204444444     0.297418888889     0.409316666667   
Si     0.186434444444     0.297638888889     0.479846666667   
Si     0.186347777778     0.297575555556     0.631606666667   
O      0.196261111111     0.307362222222     0.444556666667   
O      0.213764444444     0.000135555556     0.389116666667   
O      0.214871111111     0.333332222222     0.499996666667   
O      0.197097777778     0.308208888889     0.666666666667   
Si     0.035914444444     0.222118888889     0.409316666667   
Si     0.035694444444     0.222128888889     0.479846666667   
Si     0.035757777778     0.222105555556     0.631606666667   
O      0.025971111111     0.222232222222     0.444556666667   
O      0.333197777778     0.213628888889     0.389116666667   
O      0.000001111111     0.214872222222     0.499996666667   
O      0.025124444444     0.222222222222     0.666666666667   
Si     0.036017777778     0.222325555556     0.924016666667   
Si     0.035787777778     0.222315555556     0.853486666667   
Si     0.035874444444     0.222338888889     0.701726666667   
O      0.025961111111     0.222212222222     0.888776666667   
O      0.008457777778     0.230815555556     0.944216666667   
Si     0.111007777778     0.147025555556     0.924016666667   
Si     0.111017777778     0.146805555556     0.853486666667   
Si     0.110994444444     0.146868888889     0.701726666667   
O      0.111121111111     0.137082222222     0.888776666667   
O      0.102517777778     0.110975555556     0.944216666667   
Si     0.186307777778     0.297315555556     0.924016666667   
Si     0.186527777778     0.297545555556     0.853486666667   
Si     0.186464444444     0.297458888889     0.701726666667   
O      0.196251111111     0.307372222222     0.888776666667   
O      0.222357777778     0.324875555556     0.944216666667   
Si     0.333230000000     0.408426666667     0.257350000000   
Si     0.333240000000     0.408656666667     0.186820000000   
Si     0.333216666667     0.408570000000     0.035060000000   
O      0.000010000000     0.418483333333     0.222110000000   
O      0.040366666667     0.414066666667     0.266510000000   
O      0.301246666667     0.365420000000     0.263330000000   
O      0.324740000000     0.435986666667     0.277550000000   
O      0.300636666667     0.366030000000     0.180420000000   
O      0.325983333333     0.437093333333     0.166670000000   
O      0.040026666667     0.413386666667     0.177740000000   
O      0.000000000000     0.419320000000     0.000000000000   
O      0.040316666667     0.413966666667     0.043980000000   
O      0.301176666667     0.365490000000     0.040640000000   
Si     0.258240000000     0.591470000000     0.257350000000   
Si     0.258010000000     0.591250000000     0.186820000000   
Si     0.258096666667     0.591313333333     0.035060000000   
O      0.248183333333     0.581526666667     0.222110000000   
O      0.252600000000     0.626300000000     0.266510000000   
O      0.301246666667     0.602493333333     0.263330000000   
O      0.230680000000     0.555420000000     0.277550000000   
O      0.300636666667     0.601273333333     0.180420000000   
O      0.229573333333     0.555556666667     0.166670000000   
O      0.253280000000     0.626640000000     0.177740000000   
O      0.247346666667     0.580680000000     0.000000000000   
O      0.252700000000     0.626350000000     0.043980000000   
O      0.301176666667     0.602353333333     0.040640000000   
Si     0.075196666667     0.333436666667     0.257350000000   
Si     0.075416666667     0.333426666667     0.186820000000   
Si     0.075353333333     0.333450000000     0.035060000000   
O      0.085140000000     0.666656666667     0.222110000000   
O      0.040366666667     0.626300000000     0.266510000000   
O      0.064173333333     0.365420000000     0.263330000000   
O      0.111246666667     0.341926666667     0.277550000000   
O      0.065393333333     0.366030000000     0.180420000000   
O      0.111110000000     0.340683333333     0.166670000000   
O      0.040026666667     0.626640000000     0.177740000000   
O      0.085986666667     0.333333333333     0.000000000000   
O      0.040316666667     0.626350000000     0.043980000000   
O      0.064313333333     0.365490000000     0.040640000000   
Si     0.075093333333     0.666563333333     0.742650000000   
Si     0.075323333333     0.666573333333     0.813180000000   
Si     0.075236666667     0.666550000000     0.964940000000   
O      0.085150000000     0.333343333333     0.777890000000   
O      0.080733333333     0.373700000000     0.733490000000   
O      0.032086666667     0.634580000000     0.736670000000   
O      0.102653333333     0.658073333333     0.722450000000   
O      0.032696666667     0.633970000000     0.819580000000   
O      0.103760000000     0.659316666667     0.833330000000   
O      0.080053333333     0.373360000000     0.822260000000   
O      0.080633333333     0.373650000000     0.956020000000   
O      0.032156666667     0.634510000000     0.959360000000   
Si     0.000103333333     0.408530000000     0.742650000000   
Si     0.000093333333     0.408750000000     0.813180000000   
Si     0.000116666667     0.408686666667     0.964940000000   
O      0.333323333333     0.418473333333     0.777890000000   
O      0.292966666667     0.373700000000     0.733490000000   
O      0.032086666667     0.397506666667     0.736670000000   
O      0.008593333333     0.444580000000     0.722450000000   
O      0.032696666667     0.398726666667     0.819580000000   
O      0.007350000000     0.444443333333     0.833330000000   
O      0.293306666667     0.373360000000     0.822260000000   
O      0.293016666667     0.373650000000     0.956020000000   
O      0.032156666667     0.397646666667     0.959360000000   
Si     0.258136666667     0.591573333333     0.742650000000   
Si     0.257916666667     0.591343333333     0.813180000000   
Si     0.257980000000     0.591430000000     0.964940000000   
O      0.248193333333     0.581516666667     0.777890000000   
O      0.292966666667     0.585933333333     0.733490000000   
O      0.269160000000     0.634580000000     0.736670000000   
O      0.222086666667     0.564013333333     0.722450000000   
O      0.267940000000     0.633970000000     0.819580000000   
O      0.222223333333     0.562906666667     0.833330000000   
O      0.293306666667     0.586613333333     0.822260000000   
O      0.293016666667     0.586033333333     0.956020000000   
O      0.269020000000     0.634510000000     0.959360000000   
Si     0.000103333333     0.591573333333     0.742650000000   
Si     0.000093333333     0.591343333333     0.813180000000   
Si     0.000116666667     0.591430000000     0.964940000000   
O      0.333323333333     0.581516666667     0.777890000000   
O      0.008593333333     0.564013333333     0.722450000000   
O      0.007350000000     0.562906666667     0.833330000000   
O      0.000000000000     0.580680000000     0.000000000000   
Si     0.075093333333     0.408530000000     0.742650000000   
Si     0.075323333333     0.408750000000     0.813180000000   
Si     0.075236666667     0.408686666667     0.964940000000   
O      0.085150000000     0.418473333333     0.777890000000   
O      0.102653333333     0.444580000000     0.722450000000   
O      0.103760000000     0.444443333333     0.833330000000   
O      0.085986666667     0.419320000000     0.000000000000   
Si     0.258136666667     0.666563333333     0.742650000000   
Si     0.257916666667     0.666573333333     0.813180000000   
Si     0.257980000000     0.666550000000     0.964940000000   
O      0.248193333333     0.333343333333     0.777890000000   
O      0.222086666667     0.658073333333     0.722450000000   
O      0.222223333333     0.659316666667     0.833330000000   
O      0.247346666667     0.333333333333     0.000000000000   
Si     0.258240000000     0.333436666667     0.257350000000   
Si     0.258010000000     0.333426666667     0.186820000000   
Si     0.258096666667     0.333450000000     0.035060000000   
O      0.248183333333     0.666656666667     0.222110000000   
O      0.230680000000     0.341926666667     0.277550000000   
O      0.229573333333     0.340683333333     0.166670000000   
Si     0.333230000000     0.591470000000     0.257350000000   
Si     0.333240000000     0.591250000000     0.186820000000   
Si     0.333216666667     0.591313333333     0.035060000000   
O      0.000010000000     0.581526666667     0.222110000000   
O      0.324740000000     0.555420000000     0.277550000000   
O      0.325983333333     0.555556666667     0.166670000000   
Si     0.075196666667     0.408426666667     0.257350000000   
Si     0.075416666667     0.408656666667     0.186820000000   
Si     0.075353333333     0.408570000000     0.035060000000   
O      0.085140000000     0.418483333333     0.222110000000   
O      0.111246666667     0.435986666667     0.277550000000   
O      0.111110000000     0.437093333333     0.166670000000   
Si     0.222118888889     0.519537777778     0.590683333333   
Si     0.222128888889     0.519767777778     0.520153333333   
Si     0.222105555556     0.519681111111     0.368393333333   
O      0.222232222222     0.529594444444     0.555443333333   
O      0.262588888889     0.525177777778     0.599843333333   
O      0.190135555556     0.476531111111     0.596663333333   
O      0.213628888889     0.547097777778     0.610883333333   
O      0.189525555556     0.477141111111     0.513753333333   
O      0.214872222222     0.548204444444     0.500003333333   
O      0.262248888889     0.524497777778     0.511073333333   
O      0.222222222222     0.530431111111     0.333333333333   
O      0.262538888889     0.525077777778     0.377313333333   
O      0.190065555556     0.476601111111     0.373973333333   
Si     0.147128888889     0.369247777778     0.590683333333   
Si     0.146898888889     0.369027777778     0.520153333333   
Si     0.146985555556     0.369091111111     0.368393333333   
O      0.137072222222     0.359304444444     0.555443333333   
O      0.141488888889     0.404077777778     0.599843333333   
O      0.190135555556     0.380271111111     0.596663333333   
O      0.119568888889     0.666531111111     0.610883333333   
O      0.189525555556     0.379051111111     0.513753333333   
O      0.142168888889     0.404417777778     0.511073333333   
O      0.136235555556     0.358457777778     0.333333333333   
O      0.141588888889     0.404127777778     0.377313333333   
O      0.190065555556     0.380131111111     0.373973333333   
Si     0.297418888889     0.444547777778     0.590683333333   
Si     0.297638888889     0.444537777778     0.520153333333   
Si     0.297575555556     0.444561111111     0.368393333333   
O      0.307362222222     0.444434444444     0.555443333333   
O      0.262588888889     0.404077777778     0.599843333333   