SimulationType                MonteCarlo
NumberOfCycles                100000
NumberOfInitializationCycles  100000
PrintEvery                    500
PrintPropertiesEvery          500
RestartFile                   no

Forcefield                    local
RemoveAtomNumberCodeFromLabel yes
CutOffVDW                     12.8

Framework 0
FrameworkName CON 
UnitCells 2 2 3
ExternalTemperature 87.0
ExternalPressure  101325
Movies yes
WriteMoviesEvery    500

# Compute System Properties
ComputeRDF yes
WriteRDFEvery 500
RDFHistogramSize 128
RDFRange 12.8

Component 0 MoleculeName             argon
            MoleculeDefinition       argon
            TranslationProbability   1.0
            ReinsertionProbability   1.0
            SwapProbability          1.0
            CreateNumberOfMolecules  0
            FugacityCoefficient       1.0

