%BLOCK LATTICE_CART
ang    # angstrom units
  25.532000000000    0.000000000000     0.000000000000   
  0.000000000000     12.575000000000    0.000000000000   
  0.000000000000     0.000000000000     13.066000000000  
%ENDBLOCK LATTICE_CART

%BLOCK POSITIONS_FRAC
O      0.080150000000     0.034933333333     0.215450000000   
O      0.035950000000     0.063500000000     0.185200000000   
O      0.078950000000     0.101233333333     0.185350000000   
O      0.072600000000     0.048866666667     0.118350000000   
O      0.099100000000     0.066866666667     0.037550000000   
O      0.084700000000     0.000000000000     0.050500000000   
O      0.049450000000     0.048533333333     0.028500000000   
O      0.038000000000     0.063066666667     0.432750000000   
O      0.012350000000     0.057166666667     0.346050000000   
O      0.060850000000     0.034900000000     0.351350000000   
O      0.050800000000     0.103000000000     0.354100000000   
O      0.070800000000     0.166666666667     0.343400000000   
O      0.086450000000     0.114500000000     0.283700000000   
O      0.099300000000     0.114700000000     0.381500000000   
O      0.095600000000     0.000000000000     0.296150000000   
O      0.125000000000     0.000000000000     0.213850000000   
O      0.099050000000     0.000000000000     0.395650000000   
O      0.000000000000     0.043300000000     0.250000000000   
O      0.014900000000     0.000000000000     0.176550000000   
O      0.125000000000     0.121333333333     0.217600000000   
O      0.085900000000     0.166666666667     0.217050000000   
O      0.125000000000     0.104266666667     0.468000000000   
O      0.125000000000     0.034866666667     0.465650000000   
O      0.000000000000     0.054100000000     0.000000000000   
O      0.028200000000     0.000000000000     0.469300000000   
O      0.125000000000     0.166666666667     0.425500000000   
Si     0.067050000000     0.062300000000     0.175700000000   
Si     0.076450000000     0.040866666667     0.058350000000   
Si     0.040550000000     0.064433333333     0.371350000000   
Si     0.077000000000     0.124900000000     0.340500000000   
Si     0.095300000000     0.000000000000     0.234550000000   
Si     0.078850000000     0.000000000000     0.348350000000   
Si     0.009450000000     0.040733333333     0.191500000000   
Si     0.094000000000     0.125900000000     0.226200000000   
Si     0.125000000000     0.068966666667     0.002600000000   
Si     0.125000000000     0.000000000000     0.430400000000   
Si     0.028850000000     0.041566666667     0.482950000000   
Si     0.125000000000     0.124800000000     0.414000000000   
O      0.169850000000     0.298400000000     0.215450000000   
O      0.214050000000     0.269833333333     0.185200000000   
O      0.171050000000     0.232100000000     0.185350000000   
O      0.177400000000     0.284466666667     0.118350000000   
O      0.150900000000     0.266466666667     0.037550000000   
O      0.165300000000     0.000000000000     0.050500000000   
O      0.200550000000     0.284800000000     0.028500000000   
O      0.212000000000     0.270266666667     0.432750000000   
O      0.237650000000     0.276166666667     0.346050000000   
O      0.189150000000     0.298433333333     0.351350000000   
O      0.199200000000     0.230333333333     0.354100000000   
O      0.179200000000     0.166666666667     0.343400000000   
O      0.163550000000     0.218833333333     0.283700000000   
O      0.150700000000     0.218633333333     0.381500000000   
O      0.154400000000     0.000000000000     0.296150000000   
O      0.150950000000     0.000000000000     0.395650000000   
O      0.250000000000     0.290033333333     0.250000000000   
O      0.235100000000     0.000000000000     0.176550000000   
O      0.125000000000     0.212000000000     0.217600000000   
O      0.164100000000     0.166666666667     0.217050000000   
O      0.125000000000     0.229066666667     0.468000000000   
O      0.125000000000     0.298466666667     0.465650000000   
O      0.250000000000     0.279233333333     0.000000000000   
O      0.221800000000     0.000000000000     0.469300000000   
Si     0.182950000000     0.271033333333     0.175700000000   
Si     0.173550000000     0.292466666667     0.058350000000   
Si     0.209450000000     0.268900000000     0.371350000000   
Si     0.173000000000     0.208433333333     0.340500000000   
Si     0.154700000000     0.000000000000     0.234550000000   
Si     0.171150000000     0.000000000000     0.348350000000   
Si     0.240550000000     0.292600000000     0.191500000000   
Si     0.156000000000     0.207433333333     0.226200000000   
Si     0.125000000000     0.264366666667     0.002600000000   
Si     0.221150000000     0.291766666667     0.482950000000   
Si     0.125000000000     0.208533333333     0.414000000000   
O      0.330150000000     0.298400000000     0.284550000000   
O      0.285950000000     0.269833333333     0.314800000000   
O      0.328950000000     0.232100000000     0.314650000000   
O      0.322600000000     0.284466666667     0.381650000000   
O      0.349100000000     0.266466666667     0.462450000000   
O      0.334700000000     0.000000000000     0.449500000000   
O      0.299450000000     0.284800000000     0.471500000000   
O      0.288000000000     0.270266666667     0.067250000000   
O      0.262350000000     0.276166666667     0.153950000000   
O      0.310850000000     0.298433333333     0.148650000000   
O      0.300800000000     0.230333333333     0.145900000000   
O      0.320800000000     0.166666666667     0.156600000000   
O      0.336450000000     0.218833333333     0.216300000000   
O      0.349300000000     0.218633333333     0.118500000000   
O      0.345600000000     0.000000000000     0.203850000000   
O      0.375000000000     0.000000000000     0.286150000000   
O      0.349050000000     0.000000000000     0.104350000000   
O      0.264900000000     0.000000000000     0.323450000000   
O      0.375000000000     0.212000000000     0.282400000000   
O      0.335900000000     0.166666666667     0.282950000000   
O      0.375000000000     0.229066666667     0.032000000000   
O      0.375000000000     0.298466666667     0.034350000000   
O      0.278200000000     0.000000000000     0.030700000000   
O      0.375000000000     0.166666666667     0.074500000000   
Si     0.317050000000     0.271033333333     0.324300000000   
Si     0.326450000000     0.292466666667     0.441650000000   
Si     0.290550000000     0.268900000000     0.128650000000   
Si     0.327000000000     0.208433333333     0.159500000000   
Si     0.345300000000     0.000000000000     0.265450000000   
Si     0.328850000000     0.000000000000     0.151650000000   
Si     0.259450000000     0.292600000000     0.308500000000   
Si     0.344000000000     0.207433333333     0.273800000000   
Si     0.375000000000     0.264366666667     0.497400000000   
Si     0.375000000000     0.000000000000     0.069600000000   
Si     0.278850000000     0.291766666667     0.017050000000   
Si     0.375000000000     0.208533333333     0.086000000000   
O      0.419850000000     0.034933333333     0.284550000000   
O      0.464050000000     0.063500000000     0.314800000000   
O      0.421050000000     0.101233333333     0.314650000000   
O      0.427400000000     0.048866666667     0.381650000000   
O      0.400900000000     0.066866666667     0.462450000000   
O      0.415300000000     0.000000000000     0.449500000000   
O      0.450550000000     0.048533333333     0.471500000000   
O      0.462000000000     0.063066666667     0.067250000000   
O      0.487650000000     0.057166666667     0.153950000000   
O      0.439150000000     0.034900000000     0.148650000000   
O      0.449200000000     0.103000000000     0.145900000000   
O      0.429200000000     0.166666666667     0.156600000000   
O      0.413550000000     0.114500000000     0.216300000000   
O      0.400700000000     0.114700000000     0.118500000000   
O      0.404400000000     0.000000000000     0.203850000000   
O      0.400950000000     0.000000000000     0.104350000000   
O      0.485100000000     0.000000000000     0.323450000000   
O      0.375000000000     0.121333333333     0.282400000000   
O      0.414100000000     0.166666666667     0.282950000000   
O      0.375000000000     0.104266666667     0.032000000000   
O      0.375000000000     0.034866666667     0.034350000000   
O      0.471800000000     0.000000000000     0.030700000000   
Si     0.432950000000     0.062300000000     0.324300000000   
Si     0.423550000000     0.040866666667     0.441650000000   
Si     0.459450000000     0.064433333333     0.128650000000   
Si     0.423000000000     0.124900000000     0.159500000000   
Si     0.404700000000     0.000000000000     0.265450000000   
Si     0.421150000000     0.000000000000     0.151650000000   
Si     0.490550000000     0.040733333333     0.308500000000   
Si     0.406000000000     0.125900000000     0.273800000000   
Si     0.375000000000     0.068966666667     0.497400000000   
Si     0.471150000000     0.041566666667     0.017050000000   
Si     0.375000000000     0.124800000000     0.086000000000   
O      0.419850000000     0.298400000000     0.284550000000   
O      0.464050000000     0.269833333333     0.314800000000   
O      0.421050000000     0.232100000000     0.314650000000   
O      0.427400000000     0.284466666667     0.381650000000   
O      0.400900000000     0.266466666667     0.462450000000   
O      0.450550000000     0.284800000000     0.471500000000   
O      0.462000000000     0.270266666667     0.067250000000   
O      0.487650000000     0.276166666667     0.153950000000   
O      0.439150000000     0.298433333333     0.148650000000   
O      0.449200000000     0.230333333333     0.145900000000   
O      0.413550000000     0.218833333333     0.216300000000   
O      0.400700000000     0.218633333333     0.118500000000   
O      0.000000000000     0.290033333333     0.250000000000   
O      0.000000000000     0.279233333333     0.000000000000   
Si     0.432950000000     0.271033333333     0.324300000000   
Si     0.423550000000     0.292466666667     0.441650000000   
Si     0.459450000000     0.268900000000     0.128650000000   
Si     0.423000000000     0.208433333333     0.159500000000   
Si     0.490550000000     0.292600000000     0.308500000000   
Si     0.406000000000     0.207433333333     0.273800000000   
Si     0.471150000000     0.291766666667     0.017050000000   
O      0.330150000000     0.034933333333     0.284550000000   
O      0.285950000000     0.063500000000     0.314800000000   
O      0.328950000000     0.101233333333     0.314650000000   
O      0.322600000000     0.048866666667     0.381650000000   
O      0.349100000000     0.066866666667     0.462450000000   
O      0.299450000000     0.048533333333     0.471500000000   
O      0.288000000000     0.063066666667     0.067250000000   
O      0.262350000000     0.057166666667     0.153950000000   
O      0.310850000000     0.034900000000     0.148650000000   
O      0.300800000000     0.103000000000     0.145900000000   
O      0.336450000000     0.114500000000     0.216300000000   
O      0.349300000000     0.114700000000     0.118500000000   
O      0.250000000000     0.043300000000     0.250000000000   
O      0.250000000000     0.054100000000     0.000000000000   
Si     0.317050000000     0.062300000000     0.324300000000   
Si     0.326450000000     0.040866666667     0.441650000000   
Si     0.290550000000     0.064433333333     0.128650000000   
Si     0.327000000000     0.124900000000     0.159500000000   
Si     0.259450000000     0.040733333333     0.308500000000   
Si     0.344000000000     0.125900000000     0.273800000000   
Si     0.278850000000     0.041566666667     0.017050000000   
O      0.169850000000     0.034933333333     0.215450000000   
O      0.214050000000     0.063500000000     0.185200000000   
O      0.171050000000     0.101233333333     0.185350000000   
O      0.177400000000     0.048866666667     0.118350000000   
O      0.150900000000     0.066866666667     0.037550000000   
O      0.200550000000     0.048533333333     0.028500000000   
O      0.212000000000     0.063066666667     0.432750000000   
O      0.237650000000     0.057166666667     0.346050000000   
O      0.189150000000     0.034900000000     0.351350000000   
O      0.199200000000     0.103000000000     0.354100000000   
O      0.163550000000     0.114500000000     0.283700000000   
O      0.150700000000     0.114700000000     0.381500000000   
Si     0.182950000000     0.062300000000     0.175700000000   
Si     0.173550000000     0.040866666667     0.058350000000   
Si     0.209450000000     0.064433333333     0.371350000000   
Si     0.173000000000     0.124900000000     0.340500000000   
Si     0.240550000000     0.040733333333     0.191500000000   
Si     0.156000000000     0.125900000000     0.226200000000   
Si     0.221150000000     0.041566666667     0.482950000000   
O      0.080150000000     0.298400000000     0.215450000000   
O      0.035950000000     0.269833333333     0.185200000000   
O      0.078950000000     0.232100000000     0.185350000000   
O      0.072600000000     0.284466666667     0.118350000000   
O      0.099100000000     0.266466666667     0.037550000000   
O      0.049450000000     0.284800000000     0.028500000000   
O      0.038000000000     0.270266666667     0.432750000000   
O      0.012350000000     0.276166666667     0.346050000000   
O      0.060850000000     0.298433333333     0.351350000000   
O      0.050800000000     0.230333333333     0.354100000000   
O      0.086450000000     0.218833333333     0.283700000000   
O      0.099300000000     0.218633333333     0.381500000000   
Si     0.067050000000     0.271033333333     0.175700000000   
Si     0.076450000000     0.292466666667     0.058350000000   
Si     0.040550000000     0.268900000000     0.371350000000   
Si     0.077000000000     0.208433333333     0.340500000000   
Si     0.009450000000     0.292600000000     0.191500000000   
Si     0.094000000000     0.207433333333     0.226200000000   
Si     0.028850000000     0.291766666667     0.482950000000   
O      0.080150000000     0.034933333333     0.715450000000   
O      0.035950000000     0.063500000000     0.685200000000   
O      0.078950000000     0.101233333333     0.685350000000   
O      0.072600000000     0.048866666667     0.618350000000   
O      0.099100000000     0.066866666667     0.537550000000   
O      0.084700000000     0.000000000000     0.550500000000   
O      0.049450000000     0.048533333333     0.528500000000   
O      0.038000000000     0.063066666667     0.932750000000   
O      0.012350000000     0.057166666667     0.846050000000   
O      0.060850000000     0.034900000000     0.851350000000   
O      0.050800000000     0.103000000000     0.854100000000   
O      0.070800000000     0.166666666667     0.843400000000   
O      0.086450000000     0.114500000000     0.783700000000   
O      0.099300000000     0.114700000000     0.881500000000   
O      0.095600000000     0.000000000000     0.796150000000   
O      0.125000000000     0.000000000000     0.713850000000   
O      0.099050000000     0.000000000000     0.895650000000   
O      0.000000000000     0.043300000000     0.750000000000   
O      0.014900000000     0.000000000000     0.676550000000   
O      0.125000000000     0.121333333333     0.717600000000   
O      0.085900000000     0.166666666667     0.717050000000   
O      0.125000000000     0.104266666667     0.968000000000   
O      0.125000000000     0.034866666667     0.965650000000   
O      0.000000000000     0.054100000000     0.500000000000   
O      0.028200000000     0.000000000000     0.969300000000   
O      0.125000000000     0.166666666667     0.925500000000   
Si     0.067050000000     0.062300000000     0.675700000000   
Si     0.076450000000     0.040866666667     0.558350000000   
Si     0.040550000000     0.064433333333     0.871350000000   
Si     0.077000000000     0.124900000000     0.840500000000   
Si     0.095300000000     0.000000000000     0.734550000000   
Si     0.078850000000     0.000000000000     0.848350000000   
Si     0.009450000000     0.040733333333     0.691500000000   
Si     0.094000000000     0.125900000000     0.726200000000   
Si     0.125000000000     0.068966666667     0.502600000000   
Si     0.125000000000     0.000000000000     0.930400000000   
Si     0.028850000000     0.041566666667     0.982950000000   
Si     0.125000000000     0.124800000000     0.914000000000   
O      0.169850000000     0.298400000000     0.715450000000   
O      0.214050000000     0.269833333333     0.685200000000   
O      0.171050000000     0.232100000000     0.685350000000   
O      0.177400000000     0.284466666667     0.618350000000   
O      0.150900000000     0.266466666667     0.537550000000   
O      0.165300000000     0.000000000000     0.550500000000   
O      0.200550000000     0.284800000000     0.528500000000   
O      0.212000000000     0.270266666667     0.932750000000   
O      0.237650000000     0.276166666667     0.846050000000   
O      0.189150000000     0.298433333333     0.851350000000   
O      0.199200000000     0.230333333333     0.854100000000   
O      0.179200000000     0.166666666667     0.843400000000   
O      0.163550000000     0.218833333333     0.783700000000   
O      0.150700000000     0.218633333333     0.881500000000   
O      0.154400000000     0.000000000000     0.796150000000   
O      0.150950000000     0.000000000000     0.895650000000   
O      0.250000000000     0.290033333333     0.750000000000   
O      0.235100000000     0.000000000000     0.676550000000   
O      0.125000000000     0.212000000000     0.717600000000   
O      0.164100000000     0.166666666667     0.717050000000   
O      0.125000000000     0.229066666667     0.968000000000   
O      0.125000000000     0.298466666667     0.965650000000   
O      0.250000000000     0.279233333333     0.500000000000   
O      0.221800000000     0.000000000000     0.969300000000   
Si     0.182950000000     0.271033333333     0.675700000000   
Si     0.173550000000     0.292466666667     0.558350000000   
Si     0.209450000000     0.268900000000     0.871350000000   
Si     0.173000000000     0.208433333333     0.840500000000   
Si     0.154700000000     0.000000000000     0.734550000000   
Si     0.171150000000     0.000000000000     0.848350000000   
Si     0.240550000000     0.292600000000     0.691500000000   
Si     0.156000000000     0.207433333333     0.726200000000   
Si     0.125000000000     0.264366666667     0.502600000000   
Si     0.221150000000     0.291766666667     0.982950000000   
Si     0.125000000000     0.208533333333     0.914000000000   
O      0.330150000000     0.298400000000     0.784550000000   
O      0.285950000000     0.269833333333     0.814800000000   
O      0.328950000000     0.232100000000     0.814650000000   
O      0.322600000000     0.284466666667     0.881650000000   
O      0.349100000000     0.266466666667     0.962450000000   
O      0.334700000000     0.000000000000     0.949500000000   
O      0.299450000000     0.284800000000     0.971500000000   
O      0.288000000000     0.270266666667     0.567250000000   
O      0.262350000000     0.276166666667     0.653950000000   
O      0.310850000000     0.298433333333     0.648650000000   
O      0.300800000000     0.230333333333     0.645900000000   
O      0.320800000000     0.166666666667     0.656600000000   
O      0.336450000000     0.218833333333     0.716300000000   
O      0.349300000000     0.218633333333     0.618500000000   
O      0.345600000000     0.000000000000     0.703850000000   
O      0.375000000000     0.000000000000     0.786150000000   
O      0.349050000000     0.000000000000     0.604350000000   
O      0.264900000000     0.000000000000     0.823450000000   
O      0.375000000000     0.212000000000     0.782400000000   
O      0.335900000000     0.166666666667     0.782950000000   
O      0.375000000000     0.229066666667     0.532000000000   
O      0.375000000000     0.298466666667     0.534350000000   
O      0.278200000000     0.000000000000     0.530700000000   
O      0.375000000000     0.166666666667     0.574500000000   
Si     0.317050000000     0.271033333333     0.824300000000   
Si     0.326450000000     0.292466666667     0.941650000000   
Si     0.290550000000     0.268900000000     0.628650000000   
Si     0.327000000000     0.208433333333     0.659500000000   
Si     0.345300000000     0.000000000000     0.765450000000   
Si     0.328850000000     0.000000000000     0.651650000000   
Si     0.259450000000     0.292600000000     0.808500000000   
Si     0.344000000000     0.207433333333     0.773800000000   
Si     0.375000000000     0.264366666667     0.997400000000   
Si     0.375000000000     0.000000000000     0.569600000000   
Si     0.278850000000     0.291766666667     0.517050000000   
Si     0.375000000000     0.208533333333     0.586000000000   
O      0.419850000000     0.034933333333     0.784550000000   
O      0.464050000000     0.063500000000     0.814800000000   
O      0.421050000000     0.101233333333     0.814650000000   
O      0.427400000000     0.048866666667     0.881650000000   
O      0.400900000000     0.066866666667     0.962450000000   
O      0.415300000000     0.000000000000     0.949500000000   
O      0.450550000000     0.048533333333     0.971500000000   
O      0.462000000000     0.063066666667     0.567250000000   
O      0.487650000000     0.057166666667     0.653950000000   
O      0.439150000000     0.034900000000     0.648650000000   
O      0.449200000000     0.103000000000     0.645900000000   
O      0.429200000000     0.166666666667     0.656600000000   
O      0.413550000000     0.114500000000     0.716300000000   
O      0.400700000000     0.114700000000     0.618500000000   
O      0.404400000000     0.000000000000     0.703850000000   
O      0.400950000000     0.000000000000     0.604350000000   
O      0.485100000000     0.000000000000     0.823450000000   
O      0.375000000000     0.121333333333     0.782400000000   
O      0.414100000000     0.166666666667     0.782950000000   
O      0.375000000000     0.104266666667     0.532000000000   
O      0.375000000000     0.034866666667     0.534350000000   
O      0.471800000000     0.000000000000     0.530700000000   
Si     0.432950000000     0.062300000000     0.824300000000   
Si     0.423550000000     0.040866666667     0.941650000000   
Si     0.459450000000     0.064433333333     0.628650000000   
Si     0.423000000000     0.124900000000     0.659500000000   
Si     0.404700000000     0.000000000000     0.765450000000   
Si     0.421150000000     0.000000000000     0.651650000000   
Si     0.490550000000     0.040733333333     0.808500000000   
Si     0.406000000000     0.125900000000     0.773800000000   
Si     0.375000000000     0.068966666667     0.997400000000   
Si     0.471150000000     0.041566666667     0.517050000000   
Si     0.375000000000     0.124800000000     0.586000000000   
O      0.419850000000     0.298400000000     0.784550000000   
O      0.464050000000     0.269833333333     0.814800000000   
O      0.421050000000     0.232100000000     0.814650000000   
O      0.427400000000     0.284466666667     0.881650000000   
O      0.400900000000     0.266466666667     0.962450000000   
O      0.450550000000     0.284800000000     0.971500000000   
O      0.462000000000     0.270266666667     0.567250000000   
O      0.487650000000     0.276166666667     0.653950000000   
O      0.439150000000     0.298433333333     0.648650000000   
O      0.449200000000     0.230333333333     0.645900000000   
O      0.413550000000     0.218833333333     0.716300000000   
O      0.400700000000     0.218633333333     0.618500000000   
O      0.000000000000     0.290033333333     0.750000000000   
O      0.000000000000     0.279233333333     0.500000000000   
Si     0.432950000000     0.271033333333     0.824300000000   
Si     0.423550000000     0.292466666667     0.941650000000   
Si     0.459450000000     0.268900000000     0.628650000000   
Si     0.423000000000     0.208433333333     0.659500000000   
Si     0.490550000000     0.292600000000     0.808500000000   
Si     0.406000000000     0.207433333333     0.773800000000   
Si     0.471150000000     0.291766666667     0.517050000000   
O      0.330150000000     0.034933333333     0.784550000000   
O      0.285950000000     0.063500000000     0.814800000000   
O      0.328950000000     0.101233333333     0.814650000000   
O      0.322600000000     0.048866666667     0.881650000000   
O      0.349100000000     0.066866666667     0.962450000000   
O      0.299450000000     0.048533333333     0.971500000000   
O      0.288000000000     0.063066666667     0.567250000000   
O      0.262350000000     0.057166666667     0.653950000000   
O      0.310850000000     0.034900000000     0.648650000000   
O      0.300800000000     0.103000000000     0.645900000000   
O      0.336450000000     0.114500000000     0.716300000000   
O      0.349300000000     0.114700000000     0.618500000000   
O      0.250000000000     0.043300000000     0.750000000000   
O      0.250000000000     0.054100000000     0.500000000000   
Si     0.317050000000     0.062300000000     0.824300000000   
Si     0.326450000000     0.040866666667     0.941650000000   
Si     0.290550000000     0.064433333333     0.628650000000   
Si     0.327000000000     0.124900000000     0.659500000000   
Si     0.259450000000     0.040733333333     0.808500000000   
Si     0.344000000000     0.125900000000     0.773800000000   
Si     0.278850000000     0.041566666667     0.517050000000   
O      0.169850000000     0.034933333333     0.715450000000   
O      0.214050000000     0.063500000000     0.685200000000   
O      0.171050000000     0.101233333333     0.685350000000   
O      0.177400000000     0.048866666667     0.618350000000   
O      0.150900000000     0.066866666667     0.537550000000   
O      0.200550000000     0.048533333333     0.528500000000   
O      0.212000000000     0.063066666667     0.932750000000   
O      0.237650000000     0.057166666667     0.846050000000   
O      0.189150000000     0.034900000000     0.851350000000   
O      0.199200000000     0.103000000000     0.854100000000   
O      0.163550000000     0.114500000000     0.783700000000   
O      0.150700000000     0.114700000000     0.881500000000   
Si     0.182950000000     0.062300000000     0.675700000000   
Si     0.173550000000     0.040866666667     0.558350000000   
Si     0.209450000000     0.064433333333     0.871350000000   
Si     0.173000000000     0.124900000000     0.840500000000   
Si     0.240550000000     0.040733333333     0.691500000000   
Si     0.156000000000     0.125900000000     0.726200000000   
Si     0.221150000000     0.041566666667     0.982950000000   
O      0.080150000000     0.298400000000     0.715450000000   
O      0.035950000000     0.269833333333     0.685200000000   
O      0.078950000000     0.232100000000     0.685350000000   
O      0.072600000000     0.284466666667     0.618350000000   
O      0.099100000000     0.266466666667     0.537550000000   
O      0.049450000000     0.284800000000     0.528500000000   
O      0.038000000000     0.270266666667     0.932750000000   
O      0.012350000000     0.276166666667     0.846050000000   
O      0.060850000000     0.298433333333     0.851350000000   
O      0.050800000000     0.230333333333     0.854100000000   
O      0.086450000000     0.218833333333     0.783700000000   
O      0.099300000000     0.218633333333     0.881500000000   
Si     0.067050000000     0.271033333333     0.675700000000   
Si     0.076450000000     0.292466666667     0.558350000000   
Si     0.040550000000     0.268900000000     0.871350000000   
Si     0.077000000000     0.208433333333     0.840500000000   
Si     0.009450000000     0.292600000000     0.691500000000   
Si     0.094000000000     0.207433333333     0.726200000000   
Si     0.028850000000     0.291766666667     0.982950000000   
O      0.080150000000     0.368266666667     0.215450000000   
O      0.035950000000     0.396833333333     0.185200000000   
O      0.078950000000     0.434566666667     0.185350000000   
O      0.072600000000     0.382200000000     0.118350000000   
O      0.099100000000     0.400200000000     0.037550000000   
O      0.084700000000     0.333333333333     0.050500000000   
O      0.049450000000     0.381866666667     0.028500000000   
O      0.038000000000     0.396400000000     0.432750000000   
O      0.012350000000     0.390500000000     0.346050000000   
O      0.060850000000     0.368233333333     0.351350000000   
O      0.050800000000     0.436333333333     0.354100000000   
O      0.070800000000     0.500000000000     0.343400000000   
O      0.086450000000     0.447833333333     0.283700000000   
O      0.099300000000     0.448033333333     0.381500000000   
O      0.095600000000     0.333333333333     0.296150000000   
O      0.125000000000     0.333333333333     0.213850000000   
O      0.099050000000     0.333333333333     0.395650000000   
O      0.000000000000     0.376633333333     0.250000000000   
O      0.014900000000     0.333333333333     0.176550000000   
O      0.125000000000     0.454666666667     0.217600000000   
O      0.085900000000     0.500000000000     0.217050000000   
O      0.125000000000     0.437600000000     0.468000000000   
O      0.125000000000     0.368200000000     0.465650000000   
O      0.000000000000     0.387433333333     0.000000000000   
O      0.028200000000     0.333333333333     0.469300000000   
O      0.125000000000     0.500000000000     0.425500000000   
Si     0.067050000000     0.395633333333     0.175700000000   
Si     0.076450000000     0.374200000000     0.058350000000   