%BLOCK LATTICE_CART
ang    # angstrom units
  13.048000000000    0.000000000000     0.000000000000   
  0.000000000000     13.048000000000    0.000000000000   
  0.000000000000     0.000000000000     4.948000000000   
%ENDBLOCK LATTICE_CART

%BLOCK POSITIONS_FRAC
O      0.047050000000     0.017750000000     0.114816666667   
O      0.128000000000     0.071200000000     0.091416666667   
O      0.119200000000     0.039550000000     0.007883333333   
O      0.137100000000     0.473050000000     0.109700000000   
O      0.361650000000     0.121300000000     0.140500000000   
O      0.416500000000     0.205000000000     0.130983333333   
O      0.289050000000     0.089600000000     0.085316666667   
O      0.293350000000     0.054900000000     0.001950000000   
O      0.250000000000     0.000000000000     0.065366666667   
Si     0.107600000000     0.025150000000     0.122800000000   
Si     0.417050000000     0.143500000000     0.126716666667   
Si     0.326600000000     0.073300000000     0.125950000000   
Si     0.259300000000     0.057350000000     0.047100000000   
Si     0.000000000000     0.000000000000     0.083333333333   
O      0.017750000000     0.452950000000     0.051850000000   
O      0.071200000000     0.372000000000     0.075250000000   
O      0.039550000000     0.380800000000     0.158783333333   
O      0.473050000000     0.362900000000     0.056966666667   
O      0.121300000000     0.138350000000     0.026166666667   
O      0.205000000000     0.083500000000     0.035683333333   
O      0.089600000000     0.210950000000     0.081350000000   
O      0.054900000000     0.206650000000     0.164716666667   
O      0.000000000000     0.250000000000     0.101300000000   
Si     0.025150000000     0.392400000000     0.043866666667   
Si     0.143500000000     0.082950000000     0.039950000000   
Si     0.073300000000     0.173400000000     0.040716666667   
Si     0.057350000000     0.240700000000     0.119566666667   
O      0.452950000000     0.482250000000     0.114816666667   
O      0.372000000000     0.428800000000     0.091416666667   
O      0.380800000000     0.460450000000     0.007883333333   
O      0.362900000000     0.026950000000     0.109700000000   
O      0.138350000000     0.378700000000     0.140500000000   
O      0.083500000000     0.295000000000     0.130983333333   
O      0.210950000000     0.410400000000     0.085316666667   
O      0.206650000000     0.445100000000     0.001950000000   
Si     0.392400000000     0.474850000000     0.122800000000   
Si     0.082950000000     0.356500000000     0.126716666667   
Si     0.173400000000     0.426700000000     0.125950000000   
Si     0.240700000000     0.442650000000     0.047100000000   
O      0.482250000000     0.047050000000     0.051850000000   
O      0.428800000000     0.128000000000     0.075250000000   
O      0.460450000000     0.119200000000     0.158783333333   
O      0.026950000000     0.137100000000     0.056966666667   
O      0.378700000000     0.361650000000     0.026166666667   
O      0.295000000000     0.416500000000     0.035683333333   
O      0.410400000000     0.289050000000     0.081350000000   
O      0.445100000000     0.293350000000     0.164716666667   
Si     0.474850000000     0.107600000000     0.043866666667   
Si     0.356500000000     0.417050000000     0.039950000000   
Si     0.426700000000     0.326600000000     0.040716666667   
Si     0.442650000000     0.259300000000     0.119566666667   
O      0.047050000000     0.017750000000     0.281483333333   
O      0.128000000000     0.071200000000     0.258083333333   
O      0.119200000000     0.039550000000     0.174550000000   
O      0.137100000000     0.473050000000     0.276366666667   
O      0.361650000000     0.121300000000     0.307166666667   
O      0.416500000000     0.205000000000     0.297650000000   
O      0.289050000000     0.089600000000     0.251983333333   
O      0.293350000000     0.054900000000     0.168616666667   
O      0.250000000000     0.000000000000     0.232033333333   
Si     0.107600000000     0.025150000000     0.289466666667   
Si     0.417050000000     0.143500000000     0.293383333333   
Si     0.326600000000     0.073300000000     0.292616666667   
Si     0.259300000000     0.057350000000     0.213766666667   
Si     0.000000000000     0.000000000000     0.250000000000   
O      0.017750000000     0.452950000000     0.218516666667   
O      0.071200000000     0.372000000000     0.241916666667   
O      0.039550000000     0.380800000000     0.325450000000   
O      0.473050000000     0.362900000000     0.223633333333   
O      0.121300000000     0.138350000000     0.192833333333   
O      0.205000000000     0.083500000000     0.202350000000   
O      0.089600000000     0.210950000000     0.248016666667   
O      0.054900000000     0.206650000000     0.331383333333   
O      0.000000000000     0.250000000000     0.267966666667   
Si     0.025150000000     0.392400000000     0.210533333333   
Si     0.143500000000     0.082950000000     0.206616666667   
Si     0.073300000000     0.173400000000     0.207383333333   
Si     0.057350000000     0.240700000000     0.286233333333   
O      0.452950000000     0.482250000000     0.281483333333   
O      0.372000000000     0.428800000000     0.258083333333   
O      0.380800000000     0.460450000000     0.174550000000   
O      0.362900000000     0.026950000000     0.276366666667   
O      0.138350000000     0.378700000000     0.307166666667   
O      0.083500000000     0.295000000000     0.297650000000   
O      0.210950000000     0.410400000000     0.251983333333   
O      0.206650000000     0.445100000000     0.168616666667   
Si     0.392400000000     0.474850000000     0.289466666667   
Si     0.082950000000     0.356500000000     0.293383333333   
Si     0.173400000000     0.426700000000     0.292616666667   
Si     0.240700000000     0.442650000000     0.213766666667   
O      0.482250000000     0.047050000000     0.218516666667   
O      0.428800000000     0.128000000000     0.241916666667   
O      0.460450000000     0.119200000000     0.325450000000   
O      0.026950000000     0.137100000000     0.223633333333   
O      0.378700000000     0.361650000000     0.192833333333   
O      0.295000000000     0.416500000000     0.202350000000   
O      0.410400000000     0.289050000000     0.248016666667   
O      0.445100000000     0.293350000000     0.331383333333   
Si     0.474850000000     0.107600000000     0.210533333333   
Si     0.356500000000     0.417050000000     0.206616666667   
Si     0.426700000000     0.326600000000     0.207383333333   
Si     0.442650000000     0.259300000000     0.286233333333   
O      0.047050000000     0.017750000000     0.448150000000   
O      0.128000000000     0.071200000000     0.424750000000   
O      0.119200000000     0.039550000000     0.341216666667   
O      0.137100000000     0.473050000000     0.443033333333   
O      0.361650000000     0.121300000000     0.473833333333   
O      0.416500000000     0.205000000000     0.464316666667   
O      0.289050000000     0.089600000000     0.418650000000   
O      0.293350000000     0.054900000000     0.335283333333   
O      0.250000000000     0.000000000000     0.398700000000   
Si     0.107600000000     0.025150000000     0.456133333333   
Si     0.417050000000     0.143500000000     0.460050000000   
Si     0.326600000000     0.073300000000     0.459283333333   
Si     0.259300000000     0.057350000000     0.380433333333   
Si     0.000000000000     0.000000000000     0.416666666667   
O      0.017750000000     0.452950000000     0.385183333333   
O      0.071200000000     0.372000000000     0.408583333333   
O      0.039550000000     0.380800000000     0.492116666667   
O      0.473050000000     0.362900000000     0.390300000000   
O      0.121300000000     0.138350000000     0.359500000000   
O      0.205000000000     0.083500000000     0.369016666667   
O      0.089600000000     0.210950000000     0.414683333333   
O      0.054900000000     0.206650000000     0.498050000000   
O      0.000000000000     0.250000000000     0.434633333333   
Si     0.025150000000     0.392400000000     0.377200000000   
Si     0.143500000000     0.082950000000     0.373283333333   
Si     0.073300000000     0.173400000000     0.374050000000   
Si     0.057350000000     0.240700000000     0.452900000000   
O      0.452950000000     0.482250000000     0.448150000000   
O      0.372000000000     0.428800000000     0.424750000000   
O      0.380800000000     0.460450000000     0.341216666667   
O      0.362900000000     0.026950000000     0.443033333333   
O      0.138350000000     0.378700000000     0.473833333333   
O      0.083500000000     0.295000000000     0.464316666667   
O      0.210950000000     0.410400000000     0.418650000000   
O      0.206650000000     0.445100000000     0.335283333333   
Si     0.392400000000     0.474850000000     0.456133333333   
Si     0.082950000000     0.356500000000     0.460050000000   
Si     0.173400000000     0.426700000000     0.459283333333   
Si     0.240700000000     0.442650000000     0.380433333333   
O      0.482250000000     0.047050000000     0.385183333333   
O      0.428800000000     0.128000000000     0.408583333333   
O      0.460450000000     0.119200000000     0.492116666667   
O      0.026950000000     0.137100000000     0.390300000000   
O      0.378700000000     0.361650000000     0.359500000000   
O      0.295000000000     0.416500000000     0.369016666667   
O      0.410400000000     0.289050000000     0.414683333333   
O      0.445100000000     0.293350000000     0.498050000000   
Si     0.474850000000     0.107600000000     0.377200000000   
Si     0.356500000000     0.417050000000     0.373283333333   
Si     0.426700000000     0.326600000000     0.374050000000   
Si     0.442650000000     0.259300000000     0.452900000000   
O      0.047050000000     0.017750000000     0.614816666667   
O      0.128000000000     0.071200000000     0.591416666667   
O      0.119200000000     0.039550000000     0.507883333333   
O      0.137100000000     0.473050000000     0.609700000000   
O      0.361650000000     0.121300000000     0.640500000000   
O      0.416500000000     0.205000000000     0.630983333333   
O      0.289050000000     0.089600000000     0.585316666667   
O      0.293350000000     0.054900000000     0.501950000000   
O      0.250000000000     0.000000000000     0.565366666667   
Si     0.107600000000     0.025150000000     0.622800000000   
Si     0.417050000000     0.143500000000     0.626716666667   
Si     0.326600000000     0.073300000000     0.625950000000   
Si     0.259300000000     0.057350000000     0.547100000000   
Si     0.000000000000     0.000000000000     0.583333333333   
O      0.017750000000     0.452950000000     0.551850000000   
O      0.071200000000     0.372000000000     0.575250000000   
O      0.039550000000     0.380800000000     0.658783333333   
O      0.473050000000     0.362900000000     0.556966666667   
O      0.121300000000     0.138350000000     0.526166666667   
O      0.205000000000     0.083500000000     0.535683333333   
O      0.089600000000     0.210950000000     0.581350000000   
O      0.054900000000     0.206650000000     0.664716666667   
O      0.000000000000     0.250000000000     0.601300000000   
Si     0.025150000000     0.392400000000     0.543866666667   
Si     0.143500000000     0.082950000000     0.539950000000   
Si     0.073300000000     0.173400000000     0.540716666667   
Si     0.057350000000     0.240700000000     0.619566666667   
O      0.452950000000     0.482250000000     0.614816666667   
O      0.372000000000     0.428800000000     0.591416666667   
O      0.380800000000     0.460450000000     0.507883333333   
O      0.362900000000     0.026950000000     0.609700000000   
O      0.138350000000     0.378700000000     0.640500000000   
O      0.083500000000     0.295000000000     0.630983333333   
O      0.210950000000     0.410400000000     0.585316666667   
O      0.206650000000     0.445100000000     0.501950000000   
Si     0.392400000000     0.474850000000     0.622800000000   
Si     0.082950000000     0.356500000000     0.626716666667   
Si     0.173400000000     0.426700000000     0.625950000000   
Si     0.240700000000     0.442650000000     0.547100000000   
O      0.482250000000     0.047050000000     0.551850000000   
O      0.428800000000     0.128000000000     0.575250000000   
O      0.460450000000     0.119200000000     0.658783333333   
O      0.026950000000     0.137100000000     0.556966666667   
O      0.378700000000     0.361650000000     0.526166666667   
O      0.295000000000     0.416500000000     0.535683333333   
O      0.410400000000     0.289050000000     0.581350000000   
O      0.445100000000     0.293350000000     0.664716666667   
Si     0.474850000000     0.107600000000     0.543866666667   
Si     0.356500000000     0.417050000000     0.539950000000   
Si     0.426700000000     0.326600000000     0.540716666667   
Si     0.442650000000     0.259300000000     0.619566666667   
O      0.047050000000     0.017750000000     0.781483333333   
O      0.128000000000     0.071200000000     0.758083333333   
O      0.119200000000     0.039550000000     0.674550000000   
O      0.137100000000     0.473050000000     0.776366666667   
O      0.361650000000     0.121300000000     0.807166666667   
O      0.416500000000     0.205000000000     0.797650000000   
O      0.289050000000     0.089600000000     0.751983333333   
O      0.293350000000     0.054900000000     0.668616666667   
O      0.250000000000     0.000000000000     0.732033333333   
Si     0.107600000000     0.025150000000     0.789466666667   
Si     0.417050000000     0.143500000000     0.793383333333   
Si     0.326600000000     0.073300000000     0.792616666667   
Si     0.259300000000     0.057350000000     0.713766666667   
Si     0.000000000000     0.000000000000     0.750000000000   
O      0.017750000000     0.452950000000     0.718516666667   
O      0.071200000000     0.372000000000     0.741916666667   
O      0.039550000000     0.380800000000     0.825450000000   
O      0.473050000000     0.362900000000     0.723633333333   
O      0.121300000000     0.138350000000     0.692833333333   
O      0.205000000000     0.083500000000     0.702350000000   
O      0.089600000000     0.210950000000     0.748016666667   
O      0.054900000000     0.206650000000     0.831383333333   
O      0.000000000000     0.250000000000     0.767966666667   
Si     0.025150000000     0.392400000000     0.710533333333   
Si     0.143500000000     0.082950000000     0.706616666667   
Si     0.073300000000     0.173400000000     0.707383333333   
Si     0.057350000000     0.240700000000     0.786233333333   
O      0.452950000000     0.482250000000     0.781483333333   
O      0.372000000000     0.428800000000     0.758083333333   
O      0.380800000000     0.460450000000     0.674550000000   
O      0.362900000000     0.026950000000     0.776366666667   
O      0.138350000000     0.378700000000     0.807166666667   
O      0.083500000000     0.295000000000     0.797650000000   
O      0.210950000000     0.410400000000     0.751983333333   
O      0.206650000000     0.445100000000     0.668616666667   
Si     0.392400000000     0.474850000000     0.789466666667   
Si     0.082950000000     0.356500000000     0.793383333333   
Si     0.173400000000     0.426700000000     0.792616666667   
Si     0.240700000000     0.442650000000     0.713766666667   
O      0.482250000000     0.047050000000     0.718516666667   
O      0.428800000000     0.128000000000     0.741916666667   
O      0.460450000000     0.119200000000     0.825450000000   
O      0.026950000000     0.137100000000     0.723633333333   
O      0.378700000000     0.361650000000     0.692833333333   
O      0.295000000000     0.416500000000     0.702350000000   
O      0.410400000000     0.289050000000     0.748016666667   
O      0.445100000000     0.293350000000     0.831383333333   
Si     0.474850000000     0.107600000000     0.710533333333   
Si     0.356500000000     0.417050000000     0.706616666667   
Si     0.426700000000     0.326600000000     0.707383333333   
Si     0.442650000000     0.259300000000     0.786233333333   
O      0.047050000000     0.017750000000     0.948150000000   
O      0.128000000000     0.071200000000     0.924750000000   
O      0.119200000000     0.039550000000     0.841216666667   
O      0.137100000000     0.473050000000     0.943033333333   
O      0.361650000000     0.121300000000     0.973833333333   
O      0.416500000000     0.205000000000     0.964316666667   
O      0.289050000000     0.089600000000     0.918650000000   
O      0.293350000000     0.054900000000     0.835283333333   
O      0.250000000000     0.000000000000     0.898700000000   
Si     0.107600000000     0.025150000000     0.956133333333   
Si     0.417050000000     0.143500000000     0.960050000000   
Si     0.326600000000     0.073300000000     0.959283333333   
Si     0.259300000000     0.057350000000     0.880433333333   
Si     0.000000000000     0.000000000000     0.916666666667   
O      0.017750000000     0.452950000000     0.885183333333   
O      0.071200000000     0.372000000000     0.908583333333   
O      0.039550000000     0.380800000000     0.992116666667   
O      0.473050000000     0.362900000000     0.890300000000   
O      0.121300000000     0.138350000000     0.859500000000   
O      0.205000000000     0.083500000000     0.869016666667   
O      0.089600000000     0.210950000000     0.914683333333   
O      0.054900000000     0.206650000000     0.998050000000   
O      0.000000000000     0.250000000000     0.934633333333   
Si     0.025150000000     0.392400000000     0.877200000000   
Si     0.143500000000     0.082950000000     0.873283333333   
Si     0.073300000000     0.173400000000     0.874050000000   
Si     0.057350000000     0.240700000000     0.952900000000   
O      0.452950000000     0.482250000000     0.948150000000   
O      0.372000000000     0.428800000000     0.924750000000   
O      0.380800000000     0.460450000000     0.841216666667   
O      0.362900000000     0.026950000000     0.943033333333   
O      0.138350000000     0.378700000000     0.973833333333   
O      0.083500000000     0.295000000000     0.964316666667   
O      0.210950000000     0.410400000000     0.918650000000   
O      0.206650000000     0.445100000000     0.835283333333   
Si     0.392400000000     0.474850000000     0.956133333333   
Si     0.082950000000     0.356500000000     0.960050000000   
Si     0.173400000000     0.426700000000     0.959283333333   
Si     0.240700000000     0.442650000000     0.880433333333   
O      0.482250000000     0.047050000000     0.885183333333   
O      0.428800000000     0.128000000000     0.908583333333   
O      0.460450000000     0.119200000000     0.992116666667   
O      0.026950000000     0.137100000000     0.890300000000   
O      0.378700000000     0.361650000000     0.859500000000   
O      0.295000000000     0.416500000000     0.869016666667   
O      0.410400000000     0.289050000000     0.914683333333   
O      0.445100000000     0.293350000000     0.998050000000   
Si     0.474850000000     0.107600000000     0.877200000000   
Si     0.356500000000     0.417050000000     0.873283333333   
Si     0.426700000000     0.326600000000     0.874050000000   
Si     0.442650000000     0.259300000000     0.952900000000   
O      0.047050000000     0.517750000000     0.114816666667   
O      0.128000000000     0.571200000000     0.091416666667   
O      0.119200000000     0.539550000000     0.007883333333   
O      0.137100000000     0.973050000000     0.109700000000   
O      0.361650000000     0.621300000000     0.140500000000   
O      0.416500000000     0.705000000000     0.130983333333   
O      0.289050000000     0.589600000000     0.085316666667   
O      0.293350000000     0.554900000000     0.001950000000   
O      0.250000000000     0.500000000000     0.065366666667   
Si     0.107600000000     0.525150000000     0.122800000000   
Si     0.417050000000     0.643500000000     0.126716666667   
Si     0.326600000000     0.573300000000     0.125950000000   
Si     0.259300000000     0.557350000000     0.047100000000   
Si     0.000000000000     0.500000000000     0.083333333333   
O      0.017750000000     0.952950000000     0.051850000000   
O      0.071200000000     0.872000000000     0.075250000000   
O      0.039550000000     0.880800000000     0.158783333333   
O      0.473050000000     0.862900000000     0.056966666667   
O      0.121300000000     0.638350000000     0.026166666667   
O      0.205000000000     0.583500000000     0.035683333333   
O      0.089600000000     0.710950000000     0.081350000000   
O      0.054900000000     0.706650000000     0.164716666667   
O      0.000000000000     0.750000000000     0.101300000000   
Si     0.025150000000     0.892400000000     0.043866666667   
Si     0.143500000000     0.582950000000     0.039950000000   
Si     0.073300000000     0.673400000000     0.040716666667   
Si     0.057350000000     0.740700000000     0.119566666667   
O      0.452950000000     0.982250000000     0.114816666667   
O      0.372000000000     0.928800000000     0.091416666667   
O      0.380800000000     0.960450000000     0.007883333333   
O      0.362900000000     0.526950000000     0.109700000000   
O      0.138350000000     0.878700000000     0.140500000000   
O      0.083500000000     0.795000000000     0.130983333333   
O      0.210950000000     0.910400000000     0.085316666667   
O      0.206650000000     0.945100000000     0.001950000000   
Si     0.392400000000     0.974850000000     0.122800000000   
Si     0.082950000000     0.856500000000     0.126716666667   
Si     0.173400000000     0.926700000000     0.125950000000   
Si     0.240700000000     0.942650000000     0.047100000000   
O      0.482250000000     0.547050000000     0.051850000000   
O      0.428800000000     0.628000000000     0.075250000000   
O      0.460450000000     0.619200000000     0.158783333333   
O      0.026950000000     0.637100000000     0.056966666667   
O      0.378700000000     0.861650000000     0.026166666667   
O      0.295000000000     0.916500000000     0.035683333333   
O      0.410400000000     0.789050000000     0.081350000000   
O      0.445100000000     0.793350000000     0.164716666667   
Si     0.474850000000     0.607600000000     0.043866666667   
Si     0.356500000000     0.917050000000     0.039950000000   
Si     0.426700000000     0.826600000000     0.040716666667   
Si     0.442650000000     0.759300000000     0.119566666667   
O      0.047050000000     0.517750000000     0.281483333333   
O      0.128000000000     0.571200000000     0.258083333333   
O      0.119200000000     0.539550000000     0.174550000000   
O      0.137100000000     0.973050000000     0.276366666667   
O      0.361650000000     0.621300000000     0.307166666667   
O      0.416500000000     0.705000000000     0.297650000000   
O      0.289050000000     0.589600000000     0.251983333333   
O      0.293350000000     0.554900000000     0.168616666667   
O      0.250000000000     0.500000000000     0.232033333333   
Si     0.107600000000     0.525150000000     0.289466666667   
Si     0.417050000000     0.643500000000     0.293383333333   
Si     0.326600000000     0.573300000000     0.292616666667   
Si     0.259300000000     0.557350000000     0.213766666667   
Si     0.000000000000     0.500000000000     0.250000000000   
O      0.017750000000     0.952950000000     0.218516666667   
O      0.071200000000     0.872000000000     0.241916666667   
O      0.039550000000     0.880800000000     0.325450000000   
O      0.473050000000     0.862900000000     0.223633333333   
O      0.121300000000     0.638350000000     0.192833333333   
O      0.205000000000     0.583500000000     0.202350000000   
O      0.089600000000     0.710950000000     0.248016666667   
O      0.054900000000     0.706650000000     0.331383333333   
O      0.000000000000     0.750000000000     0.267966666667   
Si     0.025150000000     0.892400000000     0.210533333333   
Si     0.143500000000     0.582950000000     0.206616666667   
Si     0.073300000000     0.673400000000     0.207383333333   
Si     0.057350000000     0.740700000000     0.286233333333   
O      0.452950000000     0.982250000000     0.281483333333   
O      0.372000000000     0.928800000000     0.258083333333   
O      0.380800000000     0.960450000000     0.174550000000   
O      0.362900000000     0.526950000000     0.276366666667   
O      0.138350000000     0.878700000000     0.307166666667   
O      0.083500000000     0.795000000000     0.297650000000   
O      0.210950000000     0.910400000000     0.251983333333   
O      0.206650000000     0.945100000000     0.168616666667   
Si     0.392400000000     0.974850000000     0.289466666667   
Si     0.082950000000     0.856500000000     0.293383333333   
Si     0.173400000000     0.926700000000     0.292616666667   
Si     0.240700000000     0.942650000000     0.213766666667   
O      0.482250000000     0.547050000000     0.218516666667   
O      0.428800000000     0.628000000000     0.241916666667   
O      0.460450000000     0.619200000000     0.325450000000   
O      0.026950000000     0.637100000000     0.223633333333   
O      0.378700000000     0.861650000000     0.192833333333   
O      0.295000000000     0.916500000000     0.202350000000   
O      0.410400000000     0.789050000000     0.248016666667   
O      0.445100000000     0.793350000000     0.331383333333   
Si     0.474850000000     0.607600000000     0.210533333333   
Si     0.356500000000     0.917050000000     0.206616666667   
Si     0.426700000000     0.826600000000     0.207383333333   
Si     0.442650000000     0.759300000000     0.286233333333   
O      0.047050000000     0.517750000000     0.448150000000   
O      0.128000000000     0.571200000000     0.424750000000   
O      0.119200000000     0.539550000000     0.341216666667   
O      0.137100000000     0.973050000000     0.443033333333   
O      0.361650000000     0.621300000000     0.473833333333   
O      0.416500000000     0.705000000000     0.464316666667   
O      0.289050000000     0.589600000000     0.418650000000   
O      0.293350000000     0.554900000000     0.335283333333   
O      0.250000000000     0.500000000000     0.398700000000   
Si     0.107600000000     0.525150000000     0.456133333333   
Si     0.417050000000     0.643500000000     0.460050000000   
Si     0.326600000000     0.573300000000     0.459283333333   
Si     0.259300000000     0.557350000000     0.380433333333   
Si     0.000000000000     0.500000000000     0.416666666667   
O      0.017750000000     0.952950000000     0.385183333333   
O      0.071200000000     0.872000000000     0.408583333333   
O      0.039550000000     0.880800000000     0.492116666667   
O      0.473050000000     0.862900000000     0.390300000000   
O      0.121300000000     0.638350000000     0.359500000000   
O      0.205000000000     0.583500000000     0.369016666667   
O      0.089600000000     0.710950000000     0.414683333333   
O      0.054900000000     0.706650000000     0.498050000000   
O      0.000000000000     0.750000000000     0.434633333333   
Si     0.025150000000     0.892400000000     0.377200000000   
Si     0.143500000000     0.582950000000     0.373283333333   
Si     0.073300000000     0.673400000000     0.374050000000   
Si     0.057350000000     0.740700000000     0.452900000000   
O      0.452950000000     0.982250000000     0.448150000000   
O      0.372000000000     0.928800000000     0.424750000000   
O      0.380800000000     0.960450000000     0.341216666667   
O      0.362900000000     0.526950000000     0.443033333333   
O      0.138350000000     0.878700000000     0.473833333333   
O      0.083500000000     0.795000000000     0.464316666667   
O      0.210950000000     0.910400000000     0.418650000000   
O      0.206650000000     0.945100000000     0.335283333333   
Si     0.392400000000     0.974850000000     0.456133333333   
Si     0.082950000000     0.856500000000     0.460050000000   
Si     0.173400000000     0.926700000000     0.459283333333   
Si     0.240700000000     0.942650000000     0.380433333333   
O      0.482250000000     0.547050000000     0.385183333333   
O      0.428800000000     0.628000000000     0.408583333333   
O      0.460450000000     0.619200000000     0.492116666667   
O      0.026950000000     0.637100000000     0.390300000000   
O      0.378700000000     0.861650000000     0.359500000000   
O      0.295000000000     0.916500000000     0.369016666667   
O      0.410400000000     0.789050000000     0.414683333333   
O      0.445100000000     0.793350000000     0.498050000000   
Si     0.474850000000     0.607600000000     0.377200000000   
Si     0.356500000000     0.917050000000     0.373283333333   
Si     0.426700000000     0.826600000000     0.374050000000   
Si     0.442650000000     0.759300000000     0.452900000000   
O      0.047050000000     0.517750000000     0.614816666667   
O      0.128000000000     0.571200000000     0.591416666667   
O      0.119200000000     0.539550000000     0.507883333333   
O      0.137100000000     0.973050000000     0.609700000000   
O      0.361650000000     0.621300000000     0.640500000000   
O      0.416500000000     0.705000000000     0.630983333333   
O      0.289050000000     0.589600000000     0.585316666667   
O      0.293350000000     0.554900000000     0.501950000000   
O      0.250000000000     0.500000000000     0.565366666667   
Si     0.107600000000     0.525150000000     0.622800000000   
Si     0.417050000000     0.643500000000     0.626716666667   
Si     0.326600000000     0.573300000000     0.625950000000   
Si     0.259300000000     0.557350000000     0.547100000000   