%BLOCK LATTICE_CART
ang    # angstrom units
  9.762000000000     0.000000000000     0.000000000000   
  0.000000000000     20.530000000000    0.000000000000   
 -1.200368240739     0.000000000000     9.923665254664   
%ENDBLOCK LATTICE_CART

%BLOCK POSITIONS_FRAC
O      0.053166666667     0.147000000000     0.107800000000   
O      0.000000000000     0.167450000000     0.166666666667   
O      0.323533333333     0.191500000000     0.085033333333   
O      0.298900000000     0.131050000000     0.098633333333   
O      0.084700000000     0.045750000000     0.026800000000   
O      0.145966666667     0.000000000000     0.050033333333   
O      0.166666666667     0.049200000000     0.000000000000   
O      0.098300000000     0.163100000000     0.040366666667   
O      0.058900000000     0.105650000000     0.041900000000   
O      0.000000000000     0.064300000000     0.000000000000   
Si     0.002200000000     0.159150000000     0.114533333333   
Si     0.138566666667     0.038300000000     0.040466666667   
Si     0.085700000000     0.133650000000     0.072166666667   
Si     0.052966666667     0.075700000000     0.007066666667   
O      0.280166666667     0.147000000000     0.225533333333   
O      0.009800000000     0.191500000000     0.248300000000   
O      0.034433333333     0.131050000000     0.234700000000   
O      0.248633333333     0.045750000000     0.306533333333   
O      0.187366666667     0.000000000000     0.283300000000   
O      0.235033333333     0.163100000000     0.292966666667   
O      0.274433333333     0.105650000000     0.291433333333   
Si     0.331133333333     0.159150000000     0.218800000000   
Si     0.194766666667     0.038300000000     0.292866666667   
Si     0.247633333333     0.133650000000     0.261166666667   
Si     0.280366666667     0.075700000000     0.326266666667   
O      0.280166666667     0.353000000000     0.225533333333   
O      0.000000000000     0.332550000000     0.166666666667   
O      0.009800000000     0.308500000000     0.248300000000   
O      0.034433333333     0.368950000000     0.234700000000   
O      0.248633333333     0.454250000000     0.306533333333   
O      0.166666666667     0.450800000000     0.000000000000   
O      0.235033333333     0.336900000000     0.292966666667   
O      0.274433333333     0.394350000000     0.291433333333   
O      0.000000000000     0.435700000000     0.000000000000   
Si     0.331133333333     0.340850000000     0.218800000000   
Si     0.194766666667     0.461700000000     0.292866666667   
Si     0.247633333333     0.366350000000     0.261166666667   
Si     0.280366666667     0.424300000000     0.326266666667   
O      0.053166666667     0.353000000000     0.107800000000   
O      0.323533333333     0.308500000000     0.085033333333   
O      0.298900000000     0.368950000000     0.098633333333   
O      0.084700000000     0.454250000000     0.026800000000   
O      0.098300000000     0.336900000000     0.040366666667   
O      0.058900000000     0.394350000000     0.041900000000   
Si     0.002200000000     0.340850000000     0.114533333333   
Si     0.138566666667     0.461700000000     0.040466666667   
Si     0.085700000000     0.366350000000     0.072166666667   
Si     0.052966666667     0.424300000000     0.007066666667   
O      0.219833333333     0.397000000000     0.107800000000   
O      0.166666666667     0.417450000000     0.166666666667   
O      0.156866666667     0.441500000000     0.085033333333   
O      0.132233333333     0.381050000000     0.098633333333   
O      0.251366666667     0.295750000000     0.026800000000   
O      0.312633333333     0.250000000000     0.050033333333   
O      0.000000000000     0.299200000000     0.000000000000   
O      0.264966666667     0.413100000000     0.040366666667   
O      0.225566666667     0.355650000000     0.041900000000   
O      0.166666666667     0.314300000000     0.000000000000   
Si     0.168866666667     0.409150000000     0.114533333333   
Si     0.305233333333     0.288300000000     0.040466666667   
Si     0.252366666667     0.383650000000     0.072166666667   
Si     0.219633333333     0.325700000000     0.007066666667   
O      0.113500000000     0.397000000000     0.225533333333   
O      0.176466666667     0.441500000000     0.248300000000   
O      0.201100000000     0.381050000000     0.234700000000   
O      0.081966666667     0.295750000000     0.306533333333   
O      0.020700000000     0.250000000000     0.283300000000   
O      0.068366666667     0.413100000000     0.292966666667   
O      0.107766666667     0.355650000000     0.291433333333   
Si     0.164466666667     0.409150000000     0.218800000000   
Si     0.028100000000     0.288300000000     0.292866666667   
Si     0.080966666667     0.383650000000     0.261166666667   
Si     0.113700000000     0.325700000000     0.326266666667   
O      0.113500000000     0.103000000000     0.225533333333   
O      0.166666666667     0.082550000000     0.166666666667   
O      0.176466666667     0.058500000000     0.248300000000   
O      0.201100000000     0.118950000000     0.234700000000   
O      0.081966666667     0.204250000000     0.306533333333   
O      0.000000000000     0.200800000000     0.000000000000   
O      0.068366666667     0.086900000000     0.292966666667   
O      0.107766666667     0.144350000000     0.291433333333   
O      0.166666666667     0.185700000000     0.000000000000   
Si     0.164466666667     0.090850000000     0.218800000000   
Si     0.028100000000     0.211700000000     0.292866666667   
Si     0.080966666667     0.116350000000     0.261166666667   
Si     0.113700000000     0.174300000000     0.326266666667   
O      0.219833333333     0.103000000000     0.107800000000   
O      0.156866666667     0.058500000000     0.085033333333   
O      0.132233333333     0.118950000000     0.098633333333   
O      0.251366666667     0.204250000000     0.026800000000   
O      0.264966666667     0.086900000000     0.040366666667   
O      0.225566666667     0.144350000000     0.041900000000   
Si     0.168866666667     0.090850000000     0.114533333333   
Si     0.305233333333     0.211700000000     0.040466666667   
Si     0.252366666667     0.116350000000     0.072166666667   
Si     0.219633333333     0.174300000000     0.007066666667   
O      0.053166666667     0.147000000000     0.441133333333   
O      0.000000000000     0.167450000000     0.500000000000   
O      0.323533333333     0.191500000000     0.418366666667   
O      0.298900000000     0.131050000000     0.431966666667   
O      0.084700000000     0.045750000000     0.360133333333   
O      0.145966666667     0.000000000000     0.383366666667   
O      0.166666666667     0.049200000000     0.333333333333   
O      0.098300000000     0.163100000000     0.373700000000   
O      0.058900000000     0.105650000000     0.375233333333   
O      0.000000000000     0.064300000000     0.333333333333   
Si     0.002200000000     0.159150000000     0.447866666667   
Si     0.138566666667     0.038300000000     0.373800000000   
Si     0.085700000000     0.133650000000     0.405500000000   
Si     0.052966666667     0.075700000000     0.340400000000   
O      0.280166666667     0.147000000000     0.558866666667   
O      0.009800000000     0.191500000000     0.581633333333   
O      0.034433333333     0.131050000000     0.568033333333   
O      0.248633333333     0.045750000000     0.639866666667   
O      0.187366666667     0.000000000000     0.616633333333   
O      0.235033333333     0.163100000000     0.626300000000   
O      0.274433333333     0.105650000000     0.624766666667   
Si     0.331133333333     0.159150000000     0.552133333333   
Si     0.194766666667     0.038300000000     0.626200000000   
Si     0.247633333333     0.133650000000     0.594500000000   
Si     0.280366666667     0.075700000000     0.659600000000   
O      0.280166666667     0.353000000000     0.558866666667   
O      0.000000000000     0.332550000000     0.500000000000   
O      0.009800000000     0.308500000000     0.581633333333   
O      0.034433333333     0.368950000000     0.568033333333   
O      0.248633333333     0.454250000000     0.639866666667   
O      0.166666666667     0.450800000000     0.333333333333   
O      0.235033333333     0.336900000000     0.626300000000   
O      0.274433333333     0.394350000000     0.624766666667   
O      0.000000000000     0.435700000000     0.333333333333   
Si     0.331133333333     0.340850000000     0.552133333333   
Si     0.194766666667     0.461700000000     0.626200000000   
Si     0.247633333333     0.366350000000     0.594500000000   
Si     0.280366666667     0.424300000000     0.659600000000   
O      0.053166666667     0.353000000000     0.441133333333   
O      0.323533333333     0.308500000000     0.418366666667   
O      0.298900000000     0.368950000000     0.431966666667   
O      0.084700000000     0.454250000000     0.360133333333   
O      0.098300000000     0.336900000000     0.373700000000   
O      0.058900000000     0.394350000000     0.375233333333   
Si     0.002200000000     0.340850000000     0.447866666667   
Si     0.138566666667     0.461700000000     0.373800000000   
Si     0.085700000000     0.366350000000     0.405500000000   
Si     0.052966666667     0.424300000000     0.340400000000   
O      0.219833333333     0.397000000000     0.441133333333   
O      0.166666666667     0.417450000000     0.500000000000   
O      0.156866666667     0.441500000000     0.418366666667   
O      0.132233333333     0.381050000000     0.431966666667   
O      0.251366666667     0.295750000000     0.360133333333   
O      0.312633333333     0.250000000000     0.383366666667   
O      0.000000000000     0.299200000000     0.333333333333   
O      0.264966666667     0.413100000000     0.373700000000   
O      0.225566666667     0.355650000000     0.375233333333   
O      0.166666666667     0.314300000000     0.333333333333   
Si     0.168866666667     0.409150000000     0.447866666667   
Si     0.305233333333     0.288300000000     0.373800000000   
Si     0.252366666667     0.383650000000     0.405500000000   
Si     0.219633333333     0.325700000000     0.340400000000   
O      0.113500000000     0.397000000000     0.558866666667   
O      0.176466666667     0.441500000000     0.581633333333   
O      0.201100000000     0.381050000000     0.568033333333   
O      0.081966666667     0.295750000000     0.639866666667   
O      0.020700000000     0.250000000000     0.616633333333   
O      0.068366666667     0.413100000000     0.626300000000   
O      0.107766666667     0.355650000000     0.624766666667   
Si     0.164466666667     0.409150000000     0.552133333333   
Si     0.028100000000     0.288300000000     0.626200000000   
Si     0.080966666667     0.383650000000     0.594500000000   
Si     0.113700000000     0.325700000000     0.659600000000   
O      0.113500000000     0.103000000000     0.558866666667   
O      0.166666666667     0.082550000000     0.500000000000   
O      0.176466666667     0.058500000000     0.581633333333   
O      0.201100000000     0.118950000000     0.568033333333   
O      0.081966666667     0.204250000000     0.639866666667   
O      0.000000000000     0.200800000000     0.333333333333   
O      0.068366666667     0.086900000000     0.626300000000   
O      0.107766666667     0.144350000000     0.624766666667   
O      0.166666666667     0.185700000000     0.333333333333   
Si     0.164466666667     0.090850000000     0.552133333333   
Si     0.028100000000     0.211700000000     0.626200000000   
Si     0.080966666667     0.116350000000     0.594500000000   
Si     0.113700000000     0.174300000000     0.659600000000   
O      0.219833333333     0.103000000000     0.441133333333   
O      0.156866666667     0.058500000000     0.418366666667   
O      0.132233333333     0.118950000000     0.431966666667   
O      0.251366666667     0.204250000000     0.360133333333   
O      0.264966666667     0.086900000000     0.373700000000   
O      0.225566666667     0.144350000000     0.375233333333   
Si     0.168866666667     0.090850000000     0.447866666667   
Si     0.305233333333     0.211700000000     0.373800000000   
Si     0.252366666667     0.116350000000     0.405500000000   
Si     0.219633333333     0.174300000000     0.340400000000   
O      0.053166666667     0.147000000000     0.774466666667   
O      0.000000000000     0.167450000000     0.833333333333   
O      0.323533333333     0.191500000000     0.751700000000   
O      0.298900000000     0.131050000000     0.765300000000   
O      0.084700000000     0.045750000000     0.693466666667   
O      0.145966666667     0.000000000000     0.716700000000   
O      0.166666666667     0.049200000000     0.666666666667   
O      0.098300000000     0.163100000000     0.707033333333   
O      0.058900000000     0.105650000000     0.708566666667   
O      0.000000000000     0.064300000000     0.666666666667   
Si     0.002200000000     0.159150000000     0.781200000000   
Si     0.138566666667     0.038300000000     0.707133333333   
Si     0.085700000000     0.133650000000     0.738833333333   
Si     0.052966666667     0.075700000000     0.673733333333   
O      0.280166666667     0.147000000000     0.892200000000   
O      0.009800000000     0.191500000000     0.914966666667   
O      0.034433333333     0.131050000000     0.901366666667   
O      0.248633333333     0.045750000000     0.973200000000   
O      0.187366666667     0.000000000000     0.949966666667   
O      0.235033333333     0.163100000000     0.959633333333   
O      0.274433333333     0.105650000000     0.958100000000   
Si     0.331133333333     0.159150000000     0.885466666667   
Si     0.194766666667     0.038300000000     0.959533333333   
Si     0.247633333333     0.133650000000     0.927833333333   
Si     0.280366666667     0.075700000000     0.992933333333   
O      0.280166666667     0.353000000000     0.892200000000   
O      0.000000000000     0.332550000000     0.833333333333   
O      0.009800000000     0.308500000000     0.914966666667   
O      0.034433333333     0.368950000000     0.901366666667   
O      0.248633333333     0.454250000000     0.973200000000   
O      0.166666666667     0.450800000000     0.666666666667   
O      0.235033333333     0.336900000000     0.959633333333   
O      0.274433333333     0.394350000000     0.958100000000   
O      0.000000000000     0.435700000000     0.666666666667   
Si     0.331133333333     0.340850000000     0.885466666667   
Si     0.194766666667     0.461700000000     0.959533333333   
Si     0.247633333333     0.366350000000     0.927833333333   
Si     0.280366666667     0.424300000000     0.992933333333   
O      0.053166666667     0.353000000000     0.774466666667   
O      0.323533333333     0.308500000000     0.751700000000   
O      0.298900000000     0.368950000000     0.765300000000   
O      0.084700000000     0.454250000000     0.693466666667   
O      0.098300000000     0.336900000000     0.707033333333   
O      0.058900000000     0.394350000000     0.708566666667   
Si     0.002200000000     0.340850000000     0.781200000000   
Si     0.138566666667     0.461700000000     0.707133333333   
Si     0.085700000000     0.366350000000     0.738833333333   
Si     0.052966666667     0.424300000000     0.673733333333   
O      0.219833333333     0.397000000000     0.774466666667   
O      0.166666666667     0.417450000000     0.833333333333   
O      0.156866666667     0.441500000000     0.751700000000   
O      0.132233333333     0.381050000000     0.765300000000   
O      0.251366666667     0.295750000000     0.693466666667   
O      0.312633333333     0.250000000000     0.716700000000   
O      0.000000000000     0.299200000000     0.666666666667   
O      0.264966666667     0.413100000000     0.707033333333   
O      0.225566666667     0.355650000000     0.708566666667   
O      0.166666666667     0.314300000000     0.666666666667   
Si     0.168866666667     0.409150000000     0.781200000000   
Si     0.305233333333     0.288300000000     0.707133333333   
Si     0.252366666667     0.383650000000     0.738833333333   
Si     0.219633333333     0.325700000000     0.673733333333   
O      0.113500000000     0.397000000000     0.892200000000   
O      0.176466666667     0.441500000000     0.914966666667   
O      0.201100000000     0.381050000000     0.901366666667   
O      0.081966666667     0.295750000000     0.973200000000   
O      0.020700000000     0.250000000000     0.949966666667   
O      0.068366666667     0.413100000000     0.959633333333   
O      0.107766666667     0.355650000000     0.958100000000   
Si     0.164466666667     0.409150000000     0.885466666667   
Si     0.028100000000     0.288300000000     0.959533333333   
Si     0.080966666667     0.383650000000     0.927833333333   
Si     0.113700000000     0.325700000000     0.992933333333   
O      0.113500000000     0.103000000000     0.892200000000   
O      0.166666666667     0.082550000000     0.833333333333   
O      0.176466666667     0.058500000000     0.914966666667   
O      0.201100000000     0.118950000000     0.901366666667   
O      0.081966666667     0.204250000000     0.973200000000   
O      0.000000000000     0.200800000000     0.666666666667   
O      0.068366666667     0.086900000000     0.959633333333   
O      0.107766666667     0.144350000000     0.958100000000   
O      0.166666666667     0.185700000000     0.666666666667   
Si     0.164466666667     0.090850000000     0.885466666667   
Si     0.028100000000     0.211700000000     0.959533333333   
Si     0.080966666667     0.116350000000     0.927833333333   
Si     0.113700000000     0.174300000000     0.992933333333   
O      0.219833333333     0.103000000000     0.774466666667   
O      0.156866666667     0.058500000000     0.751700000000   
O      0.132233333333     0.118950000000     0.765300000000   
O      0.251366666667     0.204250000000     0.693466666667   
O      0.264966666667     0.086900000000     0.707033333333   
O      0.225566666667     0.144350000000     0.708566666667   
Si     0.168866666667     0.090850000000     0.781200000000   
Si     0.305233333333     0.211700000000     0.707133333333   
Si     0.252366666667     0.116350000000     0.738833333333   
Si     0.219633333333     0.174300000000     0.673733333333   
O      0.053166666667     0.647000000000     0.107800000000   
O      0.000000000000     0.667450000000     0.166666666667   
O      0.323533333333     0.691500000000     0.085033333333   
O      0.298900000000     0.631050000000     0.098633333333   
O      0.084700000000     0.545750000000     0.026800000000   
O      0.145966666667     0.500000000000     0.050033333333   
O      0.166666666667     0.549200000000     0.000000000000   
O      0.098300000000     0.663100000000     0.040366666667   
O      0.058900000000     0.605650000000     0.041900000000   
O      0.000000000000     0.564300000000     0.000000000000   
Si     0.002200000000     0.659150000000     0.114533333333   
Si     0.138566666667     0.538300000000     0.040466666667   
Si     0.085700000000     0.633650000000     0.072166666667   
Si     0.052966666667     0.575700000000     0.007066666667   
O      0.280166666667     0.647000000000     0.225533333333   
O      0.009800000000     0.691500000000     0.248300000000   
O      0.034433333333     0.631050000000     0.234700000000   
O      0.248633333333     0.545750000000     0.306533333333   
O      0.187366666667     0.500000000000     0.283300000000   
O      0.235033333333     0.663100000000     0.292966666667   
O      0.274433333333     0.605650000000     0.291433333333   
Si     0.331133333333     0.659150000000     0.218800000000   
Si     0.194766666667     0.538300000000     0.292866666667   
Si     0.247633333333     0.633650000000     0.261166666667   
Si     0.280366666667     0.575700000000     0.326266666667   
O      0.280166666667     0.853000000000     0.225533333333   
O      0.000000000000     0.832550000000     0.166666666667   
O      0.009800000000     0.808500000000     0.248300000000   
O      0.034433333333     0.868950000000     0.234700000000   
O      0.248633333333     0.954250000000     0.306533333333   
O      0.166666666667     0.950800000000     0.000000000000   
O      0.235033333333     0.836900000000     0.292966666667   
O      0.274433333333     0.894350000000     0.291433333333   
O      0.000000000000     0.935700000000     0.000000000000   
Si     0.331133333333     0.840850000000     0.218800000000   
Si     0.194766666667     0.961700000000     0.292866666667   
Si     0.247633333333     0.866350000000     0.261166666667   
Si     0.280366666667     0.924300000000     0.326266666667   
O      0.053166666667     0.853000000000     0.107800000000   
O      0.323533333333     0.808500000000     0.085033333333   
O      0.298900000000     0.868950000000     0.098633333333   
O      0.084700000000     0.954250000000     0.026800000000   
O      0.098300000000     0.836900000000     0.040366666667   
O      0.058900000000     0.894350000000     0.041900000000   
Si     0.002200000000     0.840850000000     0.114533333333   
Si     0.138566666667     0.961700000000     0.040466666667   
Si     0.085700000000     0.866350000000     0.072166666667   
Si     0.052966666667     0.924300000000     0.007066666667   
O      0.219833333333     0.897000000000     0.107800000000   
O      0.166666666667     0.917450000000     0.166666666667   
O      0.156866666667     0.941500000000     0.085033333333   
O      0.132233333333     0.881050000000     0.098633333333   
O      0.251366666667     0.795750000000     0.026800000000   
O      0.312633333333     0.750000000000     0.050033333333   
O      0.000000000000     0.799200000000     0.000000000000   
O      0.264966666667     0.913100000000     0.040366666667   
O      0.225566666667     0.855650000000     0.041900000000   
O      0.166666666667     0.814300000000     0.000000000000   
Si     0.168866666667     0.909150000000     0.114533333333   
Si     0.305233333333     0.788300000000     0.040466666667   
Si     0.252366666667     0.883650000000     0.072166666667   
Si     0.219633333333     0.825700000000     0.007066666667   
O      0.113500000000     0.897000000000     0.225533333333   
O      0.176466666667     0.941500000000     0.248300000000   
O      0.201100000000     0.881050000000     0.234700000000   
O      0.081966666667     0.795750000000     0.306533333333   
O      0.020700000000     0.750000000000     0.283300000000   
O      0.068366666667     0.913100000000     0.292966666667   
O      0.107766666667     0.855650000000     0.291433333333   
Si     0.164466666667     0.909150000000     0.218800000000   
Si     0.028100000000     0.788300000000     0.292866666667   
Si     0.080966666667     0.883650000000     0.261166666667   
Si     0.113700000000     0.825700000000     0.326266666667   
O      0.113500000000     0.603000000000     0.225533333333   
O      0.166666666667     0.582550000000     0.166666666667   
O      0.176466666667     0.558500000000     0.248300000000   
O      0.201100000000     0.618950000000     0.234700000000   
O      0.081966666667     0.704250000000     0.306533333333   
O      0.000000000000     0.700800000000     0.000000000000   
O      0.068366666667     0.586900000000     0.292966666667   
O      0.107766666667     0.644350000000     0.291433333333   
O      0.166666666667     0.685700000000     0.000000000000   
Si     0.164466666667     0.590850000000     0.218800000000   
Si     0.028100000000     0.711700000000     0.292866666667   
Si     0.080966666667     0.616350000000     0.261166666667   
Si     0.113700000000     0.674300000000     0.326266666667   
O      0.219833333333     0.603000000000     0.107800000000   
O      0.156866666667     0.558500000000     0.085033333333   
O      0.132233333333     0.618950000000     0.098633333333   
O      0.251366666667     0.704250000000     0.026800000000   
O      0.264966666667     0.586900000000     0.040366666667   
O      0.225566666667     0.644350000000     0.041900000000   
Si     0.168866666667     0.590850000000     0.114533333333   
Si     0.305233333333     0.711700000000     0.040466666667   
Si     0.252366666667     0.616350000000     0.072166666667   
Si     0.219633333333     0.674300000000     0.007066666667   
O      0.053166666667     0.647000000000     0.441133333333   
O      0.000000000000     0.667450000000     0.500000000000   
O      0.323533333333     0.691500000000     0.418366666667   
O      0.298900000000     0.631050000000     0.431966666667   
O      0.084700000000     0.545750000000     0.360133333333   
O      0.145966666667     0.500000000000     0.383366666667   
O      0.166666666667     0.549200000000     0.333333333333   
O      0.098300000000     0.663100000000     0.373700000000   
O      0.058900000000     0.605650000000     0.375233333333   
O      0.000000000000     0.564300000000     0.333333333333   
Si     0.002200000000     0.659150000000     0.447866666667   
Si     0.138566666667     0.538300000000     0.373800000000   
Si     0.085700000000     0.633650000000     0.405500000000   
Si     0.052966666667     0.575700000000     0.340400000000   
O      0.280166666667     0.647000000000     0.558866666667   
O      0.009800000000     0.691500000000     0.581633333333   
O      0.034433333333     0.631050000000     0.568033333333   
O      0.248633333333     0.545750000000     0.639866666667   
O      0.187366666667     0.500000000000     0.616633333333   
O      0.235033333333     0.663100000000     0.626300000000   
O      0.274433333333     0.605650000000     0.624766666667   
Si     0.331133333333     0.659150000000     0.552133333333   
Si     0.194766666667     0.538300000000     0.626200000000   
Si     0.247633333333     0.633650000000     0.594500000000   
Si     0.280366666667     0.575700000000     0.659600000000   
O      0.280166666667     0.853000000000     0.558866666667   
O      0.000000000000     0.832550000000     0.500000000000   
O      0.009800000000     0.808500000000     0.581633333333   
O      0.034433333333     0.868950000000     0.568033333333   
O      0.248633333333     0.954250000000     0.639866666667   
O      0.166666666667     0.950800000000     0.333333333333   
O      0.235033333333     0.836900000000     0.626300000000   
O      0.274433333333     0.894350000000     0.624766666667   
O      0.000000000000     0.935700000000     0.333333333333   
Si     0.331133333333     0.840850000000     0.552133333333   
Si     0.194766666667     0.961700000000     0.626200000000   
Si     0.247633333333     0.866350000000     0.594500000000   
Si     0.280366666667     0.924300000000     0.659600000000   
O      0.053166666667     0.853000000000     0.441133333333   
O      0.323533333333     0.808500000000     0.418366666667   
O      0.298900000000     0.868950000000     0.431966666667   
O      0.084700000000     0.954250000000     0.360133333333   
O      0.098300000000     0.836900000000     0.373700000000   
O      0.058900000000     0.894350000000     0.375233333333   
Si     0.002200000000     0.840850000000     0.447866666667   
Si     0.138566666667     0.961700000000     0.373800000000   
Si     0.085700000000     0.866350000000     0.405500000000   
Si     0.052966666667     0.924300000000     0.340400000000   
O      0.219833333333     0.897000000000     0.441133333333   
O      0.166666666667     0.917450000000     0.500000000000   
O      0.156866666667     0.941500000000     0.418366666667   
O      0.132233333333     0.881050000000     0.431966666667   
O      0.251366666667     0.795750000000     0.360133333333   
O      0.312633333333     0.750000000000     0.383366666667   
O      0.000000000000     0.799200000000     0.333333333333   
O      0.264966666667     0.913100000000     0.373700000000   
O      0.225566666667     0.855650000000     0.375233333333   
O      0.166666666667     0.814300000000     0.333333333333   
Si     0.168866666667     0.909150000000     0.447866666667   
Si     0.305233333333     0.788300000000     0.373800000000   
Si     0.252366666667     0.883650000000     0.405500000000   
Si     0.219633333333     0.825700000000     0.340400000000   
O      0.113500000000     0.897000000000     0.558866666667   
O      0.176466666667     0.941500000000     0.581633333333   
O      0.201100000000     0.881050000000     0.568033333333   
O      0.081966666667     0.795750000000     0.639866666667   
O      0.020700000000     0.750000000000     0.616633333333   
O      0.068366666667     0.913100000000     0.626300000000   
O      0.107766666667     0.855650000000     0.624766666667   
Si     0.164466666667     0.909150000000     0.552133333333   
Si     0.028100000000     0.788300000000     0.626200000000   
Si     0.080966666667     0.883650000000     0.594500000000   
Si     0.113700000000     0.825700000000     0.659600000000   
O      0.113500000000     0.603000000000     0.558866666667   
O      0.166666666667     0.582550000000     0.500000000000   
O      0.176466666667     0.558500000000     0.581633333333   
O      0.201100000000     0.618950000000     0.568033333333   
O      0.081966666667     0.704250000000     0.639866666667   
O      0.000000000000     0.700800000000     0.333333333333   
O      0.068366666667     0.586900000000     0.626300000000   
O      0.107766666667     0.644350000000     0.624766666667   
O      0.166666666667     0.685700000000     0.333333333333   
Si     0.164466666667     0.590850000000     0.552133333333   
Si     0.028100000000     0.711700000000     0.626200000000   
Si     0.080966666667     0.616350000000     0.594500000000   
Si     0.113700000000     0.674300000000     0.659600000000   
O      0.219833333333     0.603000000000     0.441133333333   
O      0.156866666667     0.558500000000     0.418366666667   