%BLOCK LATTICE_CART
ang    # angstrom units
  18.578000000000    0.000000000000     0.000000000000   
  0.000000000000     18.578000000000    0.000000000000   
  0.000000000000     0.000000000000     18.578000000000  
%ENDBLOCK LATTICE_CART

%BLOCK POSITIONS_FRAC
O      0.000000000000     0.092800000000     0.167400000000   
O      0.045900000000     0.122400000000     0.122400000000   
O      0.057900000000     0.125000000000     0.192100000000   
O      0.063550000000     0.063550000000     0.157450000000   
Si     0.041850000000     0.101000000000     0.159850000000   
O      0.407200000000     0.000000000000     0.167400000000   
O      0.377600000000     0.045900000000     0.122400000000   
O      0.375000000000     0.057900000000     0.192100000000   
O      0.436450000000     0.063550000000     0.157450000000   
Si     0.399000000000     0.041850000000     0.159850000000   
O      0.000000000000     0.407200000000     0.167400000000   
O      0.454100000000     0.377600000000     0.122400000000   
O      0.442100000000     0.375000000000     0.192100000000   
O      0.436450000000     0.436450000000     0.157450000000   
Si     0.458150000000     0.399000000000     0.159850000000   
O      0.092800000000     0.000000000000     0.167400000000   
O      0.122400000000     0.454100000000     0.122400000000   
O      0.125000000000     0.442100000000     0.192100000000   
O      0.063550000000     0.436450000000     0.157450000000   
Si     0.101000000000     0.458150000000     0.159850000000   
O      0.000000000000     0.407200000000     0.332600000000   
O      0.045900000000     0.377600000000     0.377600000000   
O      0.057900000000     0.375000000000     0.307900000000   
O      0.063550000000     0.436450000000     0.342550000000   
Si     0.041850000000     0.399000000000     0.340150000000   
O      0.092800000000     0.000000000000     0.332600000000   
O      0.122400000000     0.045900000000     0.377600000000   
O      0.125000000000     0.057900000000     0.307900000000   
O      0.063550000000     0.063550000000     0.342550000000   
Si     0.101000000000     0.041850000000     0.340150000000   
O      0.000000000000     0.092800000000     0.332600000000   
O      0.454100000000     0.122400000000     0.377600000000   
O      0.442100000000     0.125000000000     0.307900000000   
O      0.436450000000     0.063550000000     0.342550000000   
Si     0.458150000000     0.101000000000     0.340150000000   
O      0.407200000000     0.000000000000     0.332600000000   
O      0.377600000000     0.454100000000     0.377600000000   
O      0.375000000000     0.442100000000     0.307900000000   
O      0.436450000000     0.436450000000     0.342550000000   
Si     0.399000000000     0.458150000000     0.340150000000   
O      0.167400000000     0.000000000000     0.092800000000   
O      0.122400000000     0.045900000000     0.122400000000   
O      0.192100000000     0.057900000000     0.125000000000   
O      0.157450000000     0.063550000000     0.063550000000   
Si     0.159850000000     0.041850000000     0.101000000000   
O      0.000000000000     0.167400000000     0.092800000000   
O      0.454100000000     0.122400000000     0.122400000000   
O      0.442100000000     0.192100000000     0.125000000000   
O      0.436450000000     0.157450000000     0.063550000000   
Si     0.458150000000     0.159850000000     0.101000000000   
O      0.332600000000     0.000000000000     0.092800000000   
O      0.377600000000     0.454100000000     0.122400000000   
O      0.307900000000     0.442100000000     0.125000000000   
O      0.342550000000     0.436450000000     0.063550000000   
Si     0.340150000000     0.458150000000     0.101000000000   
O      0.000000000000     0.332600000000     0.092800000000   
O      0.045900000000     0.377600000000     0.122400000000   
O      0.057900000000     0.307900000000     0.125000000000   
O      0.063550000000     0.342550000000     0.063550000000   
Si     0.041850000000     0.340150000000     0.101000000000   
O      0.167400000000     0.000000000000     0.407200000000   
O      0.122400000000     0.454100000000     0.377600000000   
O      0.192100000000     0.442100000000     0.375000000000   
O      0.157450000000     0.436450000000     0.436450000000   
Si     0.159850000000     0.458150000000     0.399000000000   
O      0.000000000000     0.167400000000     0.407200000000   
O      0.045900000000     0.122400000000     0.377600000000   
O      0.057900000000     0.192100000000     0.375000000000   
O      0.063550000000     0.157450000000     0.436450000000   
Si     0.041850000000     0.159850000000     0.399000000000   
O      0.332600000000     0.000000000000     0.407200000000   
O      0.377600000000     0.045900000000     0.377600000000   
O      0.307900000000     0.057900000000     0.375000000000   
O      0.342550000000     0.063550000000     0.436450000000   
Si     0.340150000000     0.041850000000     0.399000000000   
O      0.000000000000     0.332600000000     0.407200000000   
O      0.454100000000     0.377600000000     0.377600000000   
O      0.442100000000     0.307900000000     0.375000000000   
O      0.436450000000     0.342550000000     0.436450000000   
Si     0.458150000000     0.340150000000     0.399000000000   
O      0.092800000000     0.167400000000     0.000000000000   
O      0.122400000000     0.122400000000     0.045900000000   
O      0.125000000000     0.192100000000     0.057900000000   
O      0.063550000000     0.157450000000     0.063550000000   
Si     0.101000000000     0.159850000000     0.041850000000   
O      0.092800000000     0.332600000000     0.000000000000   
O      0.122400000000     0.377600000000     0.454100000000   
O      0.125000000000     0.307900000000     0.442100000000   
O      0.063550000000     0.342550000000     0.436450000000   
Si     0.101000000000     0.340150000000     0.458150000000   
O      0.167400000000     0.092800000000     0.000000000000   
O      0.122400000000     0.122400000000     0.454100000000   
O      0.192100000000     0.125000000000     0.442100000000   
O      0.157450000000     0.063550000000     0.436450000000   
Si     0.159850000000     0.101000000000     0.458150000000   
O      0.407200000000     0.167400000000     0.000000000000   
O      0.377600000000     0.122400000000     0.454100000000   
O      0.375000000000     0.192100000000     0.442100000000   
O      0.436450000000     0.157450000000     0.436450000000   
Si     0.399000000000     0.159850000000     0.458150000000   
O      0.332600000000     0.407200000000     0.000000000000   
O      0.377600000000     0.377600000000     0.454100000000   
O      0.307900000000     0.375000000000     0.442100000000   
O      0.342550000000     0.436450000000     0.436450000000   
Si     0.340150000000     0.399000000000     0.458150000000   
O      0.407200000000     0.332600000000     0.000000000000   
O      0.377600000000     0.377600000000     0.045900000000   
O      0.375000000000     0.307900000000     0.057900000000   
O      0.436450000000     0.342550000000     0.063550000000   
Si     0.399000000000     0.340150000000     0.041850000000   
O      0.167400000000     0.407200000000     0.000000000000   
O      0.122400000000     0.377600000000     0.045900000000   
O      0.192100000000     0.375000000000     0.057900000000   
O      0.157450000000     0.436450000000     0.063550000000   
Si     0.159850000000     0.399000000000     0.041850000000   
O      0.332600000000     0.092800000000     0.000000000000   
O      0.377600000000     0.122400000000     0.045900000000   
O      0.307900000000     0.125000000000     0.057900000000   
O      0.342550000000     0.063550000000     0.063550000000   
Si     0.340150000000     0.101000000000     0.041850000000   
O      0.442100000000     0.375000000000     0.307900000000   
Si     0.458150000000     0.399000000000     0.340150000000   
O      0.125000000000     0.442100000000     0.307900000000   
Si     0.101000000000     0.458150000000     0.340150000000   
O      0.057900000000     0.125000000000     0.307900000000   
Si     0.041850000000     0.101000000000     0.340150000000   
O      0.375000000000     0.057900000000     0.307900000000   
Si     0.399000000000     0.041850000000     0.340150000000   
O      0.442100000000     0.125000000000     0.192100000000   
Si     0.458150000000     0.101000000000     0.159850000000   
O      0.375000000000     0.442100000000     0.192100000000   
Si     0.399000000000     0.458150000000     0.159850000000   
O      0.057900000000     0.375000000000     0.192100000000   
Si     0.041850000000     0.399000000000     0.159850000000   
O      0.125000000000     0.057900000000     0.192100000000   
Si     0.101000000000     0.041850000000     0.159850000000   
O      0.307900000000     0.442100000000     0.375000000000   
Si     0.340150000000     0.458150000000     0.399000000000   
O      0.057900000000     0.307900000000     0.375000000000   
Si     0.041850000000     0.340150000000     0.399000000000   
O      0.192100000000     0.057900000000     0.375000000000   
Si     0.159850000000     0.041850000000     0.399000000000   
O      0.442100000000     0.192100000000     0.375000000000   
Si     0.458150000000     0.159850000000     0.399000000000   
O      0.307900000000     0.057900000000     0.125000000000   
Si     0.340150000000     0.041850000000     0.101000000000   
O      0.442100000000     0.307900000000     0.125000000000   
Si     0.458150000000     0.340150000000     0.101000000000   
O      0.192100000000     0.442100000000     0.125000000000   
Si     0.159850000000     0.458150000000     0.101000000000   
O      0.057900000000     0.192100000000     0.125000000000   
Si     0.041850000000     0.159850000000     0.101000000000   
O      0.375000000000     0.307900000000     0.442100000000   
Si     0.399000000000     0.340150000000     0.458150000000   
O      0.375000000000     0.192100000000     0.057900000000   
Si     0.399000000000     0.159850000000     0.041850000000   
O      0.307900000000     0.375000000000     0.057900000000   
Si     0.340150000000     0.399000000000     0.041850000000   
O      0.125000000000     0.307900000000     0.057900000000   
Si     0.101000000000     0.340150000000     0.041850000000   
O      0.192100000000     0.125000000000     0.057900000000   
Si     0.159850000000     0.101000000000     0.041850000000   
O      0.125000000000     0.192100000000     0.442100000000   
Si     0.101000000000     0.159850000000     0.458150000000   
O      0.307900000000     0.125000000000     0.442100000000   
Si     0.340150000000     0.101000000000     0.458150000000   
O      0.192100000000     0.375000000000     0.442100000000   
Si     0.159850000000     0.399000000000     0.458150000000   
O      0.250000000000     0.342800000000     0.417400000000   
O      0.295900000000     0.372400000000     0.372400000000   
O      0.313550000000     0.313550000000     0.407450000000   
Si     0.291850000000     0.351000000000     0.409850000000   
O      0.157200000000     0.250000000000     0.417400000000   
O      0.127600000000     0.295900000000     0.372400000000   
O      0.186450000000     0.313550000000     0.407450000000   
Si     0.149000000000     0.291850000000     0.409850000000   
O      0.250000000000     0.157200000000     0.417400000000   
O      0.204100000000     0.127600000000     0.372400000000   
O      0.186450000000     0.186450000000     0.407450000000   
Si     0.208150000000     0.149000000000     0.409850000000   
O      0.342800000000     0.250000000000     0.417400000000   
O      0.372400000000     0.204100000000     0.372400000000   
O      0.313550000000     0.186450000000     0.407450000000   
Si     0.351000000000     0.208150000000     0.409850000000   
O      0.250000000000     0.157200000000     0.082600000000   
O      0.295900000000     0.127600000000     0.127600000000   
O      0.313550000000     0.186450000000     0.092550000000   
Si     0.291850000000     0.149000000000     0.090150000000   
O      0.342800000000     0.250000000000     0.082600000000   
O      0.372400000000     0.295900000000     0.127600000000   
O      0.313550000000     0.313550000000     0.092550000000   
Si     0.351000000000     0.291850000000     0.090150000000   
O      0.250000000000     0.342800000000     0.082600000000   
O      0.204100000000     0.372400000000     0.127600000000   
O      0.186450000000     0.313550000000     0.092550000000   
Si     0.208150000000     0.351000000000     0.090150000000   
O      0.157200000000     0.250000000000     0.082600000000   
O      0.127600000000     0.204100000000     0.127600000000   
O      0.186450000000     0.186450000000     0.092550000000   
Si     0.149000000000     0.208150000000     0.090150000000   
O      0.417400000000     0.250000000000     0.342800000000   
O      0.372400000000     0.295900000000     0.372400000000   
O      0.407450000000     0.313550000000     0.313550000000   
Si     0.409850000000     0.291850000000     0.351000000000   
O      0.250000000000     0.417400000000     0.342800000000   
O      0.204100000000     0.372400000000     0.372400000000   
O      0.186450000000     0.407450000000     0.313550000000   
Si     0.208150000000     0.409850000000     0.351000000000   
O      0.082600000000     0.250000000000     0.342800000000   
O      0.127600000000     0.204100000000     0.372400000000   
O      0.092550000000     0.186450000000     0.313550000000   
Si     0.090150000000     0.208150000000     0.351000000000   
O      0.250000000000     0.082600000000     0.342800000000   
O      0.295900000000     0.127600000000     0.372400000000   
O      0.313550000000     0.092550000000     0.313550000000   
Si     0.291850000000     0.090150000000     0.351000000000   
O      0.417400000000     0.250000000000     0.157200000000   
O      0.372400000000     0.204100000000     0.127600000000   
O      0.407450000000     0.186450000000     0.186450000000   
Si     0.409850000000     0.208150000000     0.149000000000   
O      0.250000000000     0.417400000000     0.157200000000   
O      0.295900000000     0.372400000000     0.127600000000   
O      0.313550000000     0.407450000000     0.186450000000   
Si     0.291850000000     0.409850000000     0.149000000000   
O      0.082600000000     0.250000000000     0.157200000000   
O      0.127600000000     0.295900000000     0.127600000000   
O      0.092550000000     0.313550000000     0.186450000000   
Si     0.090150000000     0.291850000000     0.149000000000   
O      0.250000000000     0.082600000000     0.157200000000   
O      0.204100000000     0.127600000000     0.127600000000   
O      0.186450000000     0.092550000000     0.186450000000   
Si     0.208150000000     0.090150000000     0.149000000000   
O      0.342800000000     0.417400000000     0.250000000000   
O      0.372400000000     0.372400000000     0.295900000000   
O      0.313550000000     0.407450000000     0.313550000000   
Si     0.351000000000     0.409850000000     0.291850000000   
O      0.342800000000     0.082600000000     0.250000000000   
O      0.372400000000     0.127600000000     0.204100000000   
O      0.313550000000     0.092550000000     0.186450000000   
Si     0.351000000000     0.090150000000     0.208150000000   
O      0.417400000000     0.342800000000     0.250000000000   
O      0.372400000000     0.372400000000     0.204100000000   
O      0.407450000000     0.313550000000     0.186450000000   
Si     0.409850000000     0.351000000000     0.208150000000   
O      0.157200000000     0.417400000000     0.250000000000   
O      0.127600000000     0.372400000000     0.204100000000   
O      0.186450000000     0.407450000000     0.186450000000   
Si     0.149000000000     0.409850000000     0.208150000000   
O      0.082600000000     0.157200000000     0.250000000000   
O      0.127600000000     0.127600000000     0.204100000000   
O      0.092550000000     0.186450000000     0.186450000000   
Si     0.090150000000     0.149000000000     0.208150000000   
O      0.157200000000     0.082600000000     0.250000000000   
O      0.127600000000     0.127600000000     0.295900000000   
O      0.186450000000     0.092550000000     0.313550000000   
Si     0.149000000000     0.090150000000     0.291850000000   
O      0.417400000000     0.157200000000     0.250000000000   
O      0.372400000000     0.127600000000     0.295900000000   
O      0.407450000000     0.186450000000     0.313550000000   
Si     0.409850000000     0.149000000000     0.291850000000   
O      0.082600000000     0.342800000000     0.250000000000   
O      0.127600000000     0.372400000000     0.295900000000   
O      0.092550000000     0.313550000000     0.313550000000   
Si     0.090150000000     0.351000000000     0.291850000000   
Si     0.208150000000     0.149000000000     0.090150000000   
Si     0.351000000000     0.208150000000     0.090150000000   
Si     0.291850000000     0.351000000000     0.090150000000   
Si     0.149000000000     0.291850000000     0.090150000000   
Si     0.208150000000     0.351000000000     0.409850000000   
Si     0.149000000000     0.208150000000     0.409850000000   
Si     0.291850000000     0.149000000000     0.409850000000   
Si     0.351000000000     0.291850000000     0.409850000000   
Si     0.090150000000     0.208150000000     0.149000000000   
Si     0.291850000000     0.090150000000     0.149000000000   
Si     0.409850000000     0.291850000000     0.149000000000   
Si     0.208150000000     0.409850000000     0.149000000000   
Si     0.090150000000     0.291850000000     0.351000000000   
Si     0.208150000000     0.090150000000     0.351000000000   
Si     0.409850000000     0.208150000000     0.351000000000   
Si     0.291850000000     0.409850000000     0.351000000000   
Si     0.149000000000     0.090150000000     0.208150000000   
Si     0.149000000000     0.409850000000     0.291850000000   
Si     0.090150000000     0.149000000000     0.291850000000   
Si     0.351000000000     0.090150000000     0.291850000000   
Si     0.409850000000     0.351000000000     0.291850000000   
Si     0.351000000000     0.409850000000     0.208150000000   
Si     0.090150000000     0.351000000000     0.208150000000   
Si     0.409850000000     0.149000000000     0.208150000000   
O      0.000000000000     0.092800000000     0.667400000000   
O      0.045900000000     0.122400000000     0.622400000000   
O      0.057900000000     0.125000000000     0.692100000000   
O      0.063550000000     0.063550000000     0.657450000000   
Si     0.041850000000     0.101000000000     0.659850000000   
O      0.407200000000     0.000000000000     0.667400000000   
O      0.377600000000     0.045900000000     0.622400000000   
O      0.375000000000     0.057900000000     0.692100000000   
O      0.436450000000     0.063550000000     0.657450000000   
Si     0.399000000000     0.041850000000     0.659850000000   
O      0.000000000000     0.407200000000     0.667400000000   
O      0.454100000000     0.377600000000     0.622400000000   
O      0.442100000000     0.375000000000     0.692100000000   
O      0.436450000000     0.436450000000     0.657450000000   
Si     0.458150000000     0.399000000000     0.659850000000   
O      0.092800000000     0.000000000000     0.667400000000   
O      0.122400000000     0.454100000000     0.622400000000   
O      0.125000000000     0.442100000000     0.692100000000   
O      0.063550000000     0.436450000000     0.657450000000   
Si     0.101000000000     0.458150000000     0.659850000000   
O      0.000000000000     0.407200000000     0.832600000000   
O      0.045900000000     0.377600000000     0.877600000000   
O      0.057900000000     0.375000000000     0.807900000000   
O      0.063550000000     0.436450000000     0.842550000000   
Si     0.041850000000     0.399000000000     0.840150000000   
O      0.092800000000     0.000000000000     0.832600000000   
O      0.122400000000     0.045900000000     0.877600000000   
O      0.125000000000     0.057900000000     0.807900000000   
O      0.063550000000     0.063550000000     0.842550000000   
Si     0.101000000000     0.041850000000     0.840150000000   
O      0.000000000000     0.092800000000     0.832600000000   
O      0.454100000000     0.122400000000     0.877600000000   
O      0.442100000000     0.125000000000     0.807900000000   
O      0.436450000000     0.063550000000     0.842550000000   
Si     0.458150000000     0.101000000000     0.840150000000   
O      0.407200000000     0.000000000000     0.832600000000   
O      0.377600000000     0.454100000000     0.877600000000   
O      0.375000000000     0.442100000000     0.807900000000   
O      0.436450000000     0.436450000000     0.842550000000   
Si     0.399000000000     0.458150000000     0.840150000000   
O      0.167400000000     0.000000000000     0.592800000000   
O      0.122400000000     0.045900000000     0.622400000000   
O      0.192100000000     0.057900000000     0.625000000000   
O      0.157450000000     0.063550000000     0.563550000000   
Si     0.159850000000     0.041850000000     0.601000000000   
O      0.000000000000     0.167400000000     0.592800000000   
O      0.454100000000     0.122400000000     0.622400000000   
O      0.442100000000     0.192100000000     0.625000000000   
O      0.436450000000     0.157450000000     0.563550000000   
Si     0.458150000000     0.159850000000     0.601000000000   
O      0.332600000000     0.000000000000     0.592800000000   
O      0.377600000000     0.454100000000     0.622400000000   
O      0.307900000000     0.442100000000     0.625000000000   
O      0.342550000000     0.436450000000     0.563550000000   
Si     0.340150000000     0.458150000000     0.601000000000   
O      0.000000000000     0.332600000000     0.592800000000   
O      0.045900000000     0.377600000000     0.622400000000   
O      0.057900000000     0.307900000000     0.625000000000   
O      0.063550000000     0.342550000000     0.563550000000   
Si     0.041850000000     0.340150000000     0.601000000000   
O      0.167400000000     0.000000000000     0.907200000000   
O      0.122400000000     0.454100000000     0.877600000000   
O      0.192100000000     0.442100000000     0.875000000000   
O      0.157450000000     0.436450000000     0.936450000000   
Si     0.159850000000     0.458150000000     0.899000000000   
O      0.000000000000     0.167400000000     0.907200000000   
O      0.045900000000     0.122400000000     0.877600000000   
O      0.057900000000     0.192100000000     0.875000000000   
O      0.063550000000     0.157450000000     0.936450000000   
Si     0.041850000000     0.159850000000     0.899000000000   
O      0.332600000000     0.000000000000     0.907200000000   
O      0.377600000000     0.045900000000     0.877600000000   
O      0.307900000000     0.057900000000     0.875000000000   
O      0.342550000000     0.063550000000     0.936450000000   
Si     0.340150000000     0.041850000000     0.899000000000   
O      0.000000000000     0.332600000000     0.907200000000   
O      0.454100000000     0.377600000000     0.877600000000   
O      0.442100000000     0.307900000000     0.875000000000   
O      0.436450000000     0.342550000000     0.936450000000   
Si     0.458150000000     0.340150000000     0.899000000000   
O      0.092800000000     0.167400000000     0.500000000000   
O      0.122400000000     0.122400000000     0.545900000000   
O      0.125000000000     0.192100000000     0.557900000000   
O      0.063550000000     0.157450000000     0.563550000000   
Si     0.101000000000     0.159850000000     0.541850000000   
O      0.092800000000     0.332600000000     0.500000000000   
O      0.122400000000     0.377600000000     0.954100000000   
O      0.125000000000     0.307900000000     0.942100000000   
O      0.063550000000     0.342550000000     0.936450000000   
Si     0.101000000000     0.340150000000     0.958150000000   
O      0.167400000000     0.092800000000     0.500000000000   
O      0.122400000000     0.122400000000     0.954100000000   
O      0.192100000000     0.125000000000     0.942100000000   
O      0.157450000000     0.063550000000     0.936450000000   
Si     0.159850000000     0.101000000000     0.958150000000   
O      0.407200000000     0.167400000000     0.500000000000   
O      0.377600000000     0.122400000000     0.954100000000   
O      0.375000000000     0.192100000000     0.942100000000   
O      0.436450000000     0.157450000000     0.936450000000   
Si     0.399000000000     0.159850000000     0.958150000000   
O      0.332600000000     0.407200000000     0.500000000000   
O      0.377600000000     0.377600000000     0.954100000000   
O      0.307900000000     0.375000000000     0.942100000000   
O      0.342550000000     0.436450000000     0.936450000000   
Si     0.340150000000     0.399000000000     0.958150000000   
O      0.407200000000     0.332600000000     0.500000000000   
O      0.377600000000     0.377600000000     0.545900000000   
O      0.375000000000     0.307900000000     0.557900000000   
O      0.436450000000     0.342550000000     0.563550000000   
Si     0.399000000000     0.340150000000     0.541850000000   
O      0.167400000000     0.407200000000     0.500000000000   
O      0.122400000000     0.377600000000     0.545900000000   
O      0.192100000000     0.375000000000     0.557900000000   
O      0.157450000000     0.436450000000     0.563550000000   
Si     0.159850000000     0.399000000000     0.541850000000   
O      0.332600000000     0.092800000000     0.500000000000   
O      0.377600000000     0.122400000000     0.545900000000   
O      0.307900000000     0.125000000000     0.557900000000   
O      0.342550000000     0.063550000000     0.563550000000   
Si     0.340150000000     0.101000000000     0.541850000000   
O      0.442100000000     0.375000000000     0.807900000000   
Si     0.458150000000     0.399000000000     0.840150000000   
O      0.125000000000     0.442100000000     0.807900000000   
Si     0.101000000000     0.458150000000     0.840150000000   
O      0.057900000000     0.125000000000     0.807900000000   
Si     0.041850000000     0.101000000000     0.840150000000   
O      0.375000000000     0.057900000000     0.807900000000   
Si     0.399000000000     0.041850000000     0.840150000000   
O      0.442100000000     0.125000000000     0.692100000000   
Si     0.458150000000     0.101000000000     0.659850000000   
O      0.375000000000     0.442100000000     0.692100000000   
Si     0.399000000000     0.458150000000     0.659850000000   
O      0.057900000000     0.375000000000     0.692100000000   
Si     0.041850000000     0.399000000000     0.659850000000   
O      0.125000000000     0.057900000000     0.692100000000   
Si     0.101000000000     0.041850000000     0.659850000000   
O      0.307900000000     0.442100000000     0.875000000000   
Si     0.340150000000     0.458150000000     0.899000000000   
O      0.057900000000     0.307900000000     0.875000000000   
Si     0.041850000000     0.340150000000     0.899000000000   
O      0.192100000000     0.057900000000     0.875000000000   
Si     0.159850000000     0.041850000000     0.899000000000   
O      0.442100000000     0.192100000000     0.875000000000   
Si     0.458150000000     0.159850000000     0.899000000000   
O      0.307900000000     0.057900000000     0.625000000000   
Si     0.340150000000     0.041850000000     0.601000000000   
O      0.442100000000     0.307900000000     0.625000000000   
Si     0.458150000000     0.340150000000     0.601000000000   
O      0.192100000000     0.442100000000     0.625000000000   
Si     0.159850000000     0.458150000000     0.601000000000   
O      0.057900000000     0.192100000000     0.625000000000   
Si     0.041850000000     0.159850000000     0.601000000000   
O      0.375000000000     0.307900000000     0.942100000000   
Si     0.399000000000     0.340150000000     0.958150000000   
O      0.375000000000     0.192100000000     0.557900000000   
Si     0.399000000000     0.159850000000     0.541850000000   
O      0.307900000000     0.375000000000     0.557900000000   
Si     0.340150000000     0.399000000000     0.541850000000   
O      0.125000000000     0.307900000000     0.557900000000   
Si     0.101000000000     0.340150000000     0.541850000000   
O      0.192100000000     0.125000000000     0.557900000000   
Si     0.159850000000     0.101000000000     0.541850000000   
O      0.125000000000     0.192100000000     0.942100000000   
Si     0.101000000000     0.159850000000     0.958150000000   
O      0.307900000000     0.125000000000     0.942100000000   
Si     0.340150000000     0.101000000000     0.958150000000   
O      0.192100000000     0.375000000000     0.942100000000   
Si     0.159850000000     0.399000000000     0.958150000000   
O      0.250000000000     0.342800000000     0.917400000000   
O      0.295900000000     0.372400000000     0.872400000000   
O      0.313550000000     0.313550000000     0.907450000000   
Si     0.291850000000     0.351000000000     0.909850000000   
O      0.157200000000     0.250000000000     0.917400000000   
O      0.127600000000     0.295900000000     0.872400000000   
O      0.186450000000     0.313550000000     0.907450000000   
Si     0.149000000000     0.291850000000     0.909850000000   
O      0.250000000000     0.157200000000     0.917400000000   
O      0.204100000000     0.127600000000     0.872400000000   
O      0.186450000000     0.186450000000     0.907450000000   
Si     0.208150000000     0.149000000000     0.909850000000   
O      0.342800000000     0.250000000000     0.917400000000   
O      0.372400000000     0.204100000000     0.872400000000   
O      0.313550000000     0.186450000000     0.907450000000   
Si     0.351000000000     0.208150000000     0.909850000000   