%BLOCK LATTICE_CART
ang    # angstrom units
  19.031000000000    0.000000000000     0.000000000000   
 -9.515500000000     16.481329459422    0.000000000000   
  0.000000000000     0.000000000000     14.101000000000  
%ENDBLOCK LATTICE_CART

%BLOCK POSITIONS_FRAC
O      0.220150000000     0.075100000000     0.166800000000   
O      0.280000000000     0.060000000000     0.184750000000   
O      0.205050000000     0.000000000000     0.176500000000   
O      0.225850000000     0.048450000000     0.250000000000   
O      0.247000000000     0.123500000000     0.092500000000   
O      0.287550000000     0.143750000000     0.173400000000   
O      0.263350000000     0.131700000000     0.000000000000   
O      0.310500000000     0.121050000000     0.058800000000   
O      0.333350000000     0.166650000000     0.250000000000   
Si     0.233100000000     0.046100000000     0.194150000000   
Si     0.243250000000     0.121650000000     0.149450000000   
Si     0.282050000000     0.141000000000     0.052800000000   
Si     0.333350000000     0.166650000000     0.193050000000   
O      0.145050000000     0.220150000000     0.166800000000   
O      0.220000000000     0.280000000000     0.184750000000   
O      0.205050000000     0.205050000000     0.176500000000   
O      0.177400000000     0.225850000000     0.250000000000   
O      0.123500000000     0.247000000000     0.092500000000   
O      0.143800000000     0.287550000000     0.173400000000   
O      0.131650000000     0.263350000000     0.000000000000   
O      0.189450000000     0.310500000000     0.058800000000   
O      0.166700000000     0.333350000000     0.250000000000   
Si     0.187000000000     0.233100000000     0.194150000000   
Si     0.121600000000     0.243250000000     0.149450000000   
Si     0.141050000000     0.282050000000     0.052800000000   
Si     0.166700000000     0.333350000000     0.193050000000   
O      0.424900000000     0.145050000000     0.166800000000   
O      0.440000000000     0.220000000000     0.184750000000   
O      0.000000000000     0.205050000000     0.176500000000   
O      0.451550000000     0.177400000000     0.250000000000   
O      0.376500000000     0.123500000000     0.092500000000   
O      0.356250000000     0.143800000000     0.173400000000   
O      0.368300000000     0.131650000000     0.000000000000   
O      0.378950000000     0.189450000000     0.058800000000   
Si     0.453900000000     0.187000000000     0.194150000000   
Si     0.378350000000     0.121600000000     0.149450000000   
Si     0.359000000000     0.141050000000     0.052800000000   
O      0.279850000000     0.424900000000     0.166800000000   
O      0.220000000000     0.440000000000     0.184750000000   
O      0.294950000000     0.000000000000     0.176500000000   
O      0.274150000000     0.451550000000     0.250000000000   
O      0.253000000000     0.376500000000     0.092500000000   
O      0.212450000000     0.356250000000     0.173400000000   
O      0.236650000000     0.368300000000     0.000000000000   
O      0.189500000000     0.378950000000     0.058800000000   
Si     0.266900000000     0.453900000000     0.194150000000   
Si     0.256750000000     0.378350000000     0.149450000000   
Si     0.217950000000     0.359000000000     0.052800000000   
O      0.354950000000     0.279850000000     0.166800000000   
O      0.280000000000     0.220000000000     0.184750000000   
O      0.294950000000     0.294950000000     0.176500000000   
O      0.322600000000     0.274150000000     0.250000000000   
O      0.376500000000     0.253000000000     0.092500000000   
O      0.356200000000     0.212450000000     0.173400000000   
O      0.368350000000     0.236650000000     0.000000000000   
O      0.310550000000     0.189500000000     0.058800000000   
Si     0.313000000000     0.266900000000     0.194150000000   
Si     0.378400000000     0.256750000000     0.149450000000   
Si     0.358950000000     0.217950000000     0.052800000000   
O      0.075100000000     0.354950000000     0.166800000000   
O      0.060000000000     0.280000000000     0.184750000000   
O      0.000000000000     0.294950000000     0.176500000000   
O      0.048450000000     0.322600000000     0.250000000000   
O      0.123500000000     0.376500000000     0.092500000000   
O      0.143750000000     0.356200000000     0.173400000000   
O      0.131700000000     0.368350000000     0.000000000000   
O      0.121050000000     0.310550000000     0.058800000000   
Si     0.046100000000     0.313000000000     0.194150000000   
Si     0.121650000000     0.378400000000     0.149450000000   
Si     0.141000000000     0.358950000000     0.052800000000   
O      0.424900000000     0.279850000000     0.333200000000   
O      0.440000000000     0.220000000000     0.315250000000   
O      0.000000000000     0.294950000000     0.323500000000   
O      0.451550000000     0.274150000000     0.250000000000   
O      0.376500000000     0.253000000000     0.407500000000   
O      0.356250000000     0.212450000000     0.326600000000   
O      0.378950000000     0.189500000000     0.441200000000   
Si     0.453900000000     0.266900000000     0.305850000000   
Si     0.378350000000     0.256750000000     0.350550000000   
Si     0.359000000000     0.217950000000     0.447200000000   
Si     0.333350000000     0.166650000000     0.306950000000   
O      0.145050000000     0.424900000000     0.333200000000   
O      0.220000000000     0.440000000000     0.315250000000   
O      0.205050000000     0.000000000000     0.323500000000   
O      0.177400000000     0.451550000000     0.250000000000   
O      0.123500000000     0.376500000000     0.407500000000   
O      0.143800000000     0.356250000000     0.326600000000   
O      0.189450000000     0.378950000000     0.441200000000   
Si     0.187000000000     0.453900000000     0.305850000000   
Si     0.121600000000     0.378350000000     0.350550000000   
Si     0.141050000000     0.359000000000     0.447200000000   
Si     0.166700000000     0.333350000000     0.306950000000   
O      0.220150000000     0.145050000000     0.333200000000   
O      0.280000000000     0.220000000000     0.315250000000   
O      0.205050000000     0.205050000000     0.323500000000   
O      0.225850000000     0.177400000000     0.250000000000   
O      0.247000000000     0.123500000000     0.407500000000   
O      0.287550000000     0.143800000000     0.326600000000   
O      0.310500000000     0.189450000000     0.441200000000   
Si     0.233100000000     0.187000000000     0.305850000000   
Si     0.243250000000     0.121600000000     0.350550000000   
Si     0.282050000000     0.141050000000     0.447200000000   
O      0.075100000000     0.220150000000     0.333200000000   
O      0.060000000000     0.280000000000     0.315250000000   
O      0.000000000000     0.205050000000     0.323500000000   
O      0.048450000000     0.225850000000     0.250000000000   
O      0.123500000000     0.247000000000     0.407500000000   
O      0.143750000000     0.287550000000     0.326600000000   
O      0.121050000000     0.310500000000     0.441200000000   
Si     0.046100000000     0.233100000000     0.305850000000   
Si     0.121650000000     0.243250000000     0.350550000000   
Si     0.141000000000     0.282050000000     0.447200000000   
O      0.354950000000     0.075100000000     0.333200000000   
O      0.280000000000     0.060000000000     0.315250000000   
O      0.294950000000     0.000000000000     0.323500000000   
O      0.322600000000     0.048450000000     0.250000000000   
O      0.376500000000     0.123500000000     0.407500000000   
O      0.356200000000     0.143750000000     0.326600000000   
O      0.310550000000     0.121050000000     0.441200000000   
Si     0.313000000000     0.046100000000     0.305850000000   
Si     0.378400000000     0.121650000000     0.350550000000   
Si     0.358950000000     0.141000000000     0.447200000000   
O      0.279850000000     0.354950000000     0.333200000000   
O      0.220000000000     0.280000000000     0.315250000000   
O      0.294950000000     0.294950000000     0.323500000000   
O      0.274150000000     0.322600000000     0.250000000000   
O      0.253000000000     0.376500000000     0.407500000000   
O      0.212450000000     0.356200000000     0.326600000000   
O      0.189500000000     0.310550000000     0.441200000000   
Si     0.266900000000     0.313000000000     0.305850000000   
Si     0.256750000000     0.378400000000     0.350550000000   
Si     0.217950000000     0.358950000000     0.447200000000   
O      0.279850000000     0.424900000000     0.333200000000   
Si     0.266900000000     0.453900000000     0.305850000000   
O      0.354950000000     0.279850000000     0.333200000000   
Si     0.313000000000     0.266900000000     0.305850000000   
O      0.075100000000     0.354950000000     0.333200000000   
Si     0.046100000000     0.313000000000     0.305850000000   
O      0.220150000000     0.075100000000     0.333200000000   
Si     0.233100000000     0.046100000000     0.305850000000   
O      0.145050000000     0.220150000000     0.333200000000   
Si     0.187000000000     0.233100000000     0.305850000000   
O      0.424900000000     0.145050000000     0.333200000000   
Si     0.453900000000     0.187000000000     0.305850000000   
O      0.075100000000     0.220150000000     0.166800000000   
Si     0.046100000000     0.233100000000     0.194150000000   
O      0.354950000000     0.075100000000     0.166800000000   
Si     0.313000000000     0.046100000000     0.194150000000   
O      0.279850000000     0.354950000000     0.166800000000   
Si     0.266900000000     0.313000000000     0.194150000000   
O      0.424900000000     0.279850000000     0.166800000000   
Si     0.453900000000     0.266900000000     0.194150000000   
O      0.145050000000     0.424900000000     0.166800000000   
Si     0.187000000000     0.453900000000     0.194150000000   
O      0.220150000000     0.145050000000     0.166800000000   
Si     0.233100000000     0.187000000000     0.194150000000   
O      0.220150000000     0.075100000000     0.666800000000   
O      0.280000000000     0.060000000000     0.684750000000   
O      0.205050000000     0.000000000000     0.676500000000   
O      0.225850000000     0.048450000000     0.750000000000   
O      0.247000000000     0.123500000000     0.592500000000   
O      0.287550000000     0.143750000000     0.673400000000   
O      0.263350000000     0.131700000000     0.500000000000   
O      0.310500000000     0.121050000000     0.558800000000   
O      0.333350000000     0.166650000000     0.750000000000   
Si     0.233100000000     0.046100000000     0.694150000000   
Si     0.243250000000     0.121650000000     0.649450000000   
Si     0.282050000000     0.141000000000     0.552800000000   
Si     0.333350000000     0.166650000000     0.693050000000   
O      0.145050000000     0.220150000000     0.666800000000   
O      0.220000000000     0.280000000000     0.684750000000   
O      0.205050000000     0.205050000000     0.676500000000   
O      0.177400000000     0.225850000000     0.750000000000   
O      0.123500000000     0.247000000000     0.592500000000   
O      0.143800000000     0.287550000000     0.673400000000   
O      0.131650000000     0.263350000000     0.500000000000   
O      0.189450000000     0.310500000000     0.558800000000   
O      0.166700000000     0.333350000000     0.750000000000   
Si     0.187000000000     0.233100000000     0.694150000000   
Si     0.121600000000     0.243250000000     0.649450000000   
Si     0.141050000000     0.282050000000     0.552800000000   
Si     0.166700000000     0.333350000000     0.693050000000   
O      0.424900000000     0.145050000000     0.666800000000   
O      0.440000000000     0.220000000000     0.684750000000   
O      0.000000000000     0.205050000000     0.676500000000   
O      0.451550000000     0.177400000000     0.750000000000   
O      0.376500000000     0.123500000000     0.592500000000   
O      0.356250000000     0.143800000000     0.673400000000   
O      0.368300000000     0.131650000000     0.500000000000   
O      0.378950000000     0.189450000000     0.558800000000   
Si     0.453900000000     0.187000000000     0.694150000000   
Si     0.378350000000     0.121600000000     0.649450000000   
Si     0.359000000000     0.141050000000     0.552800000000   
O      0.279850000000     0.424900000000     0.666800000000   
O      0.220000000000     0.440000000000     0.684750000000   
O      0.294950000000     0.000000000000     0.676500000000   
O      0.274150000000     0.451550000000     0.750000000000   
O      0.253000000000     0.376500000000     0.592500000000   
O      0.212450000000     0.356250000000     0.673400000000   
O      0.236650000000     0.368300000000     0.500000000000   
O      0.189500000000     0.378950000000     0.558800000000   
Si     0.266900000000     0.453900000000     0.694150000000   
Si     0.256750000000     0.378350000000     0.649450000000   
Si     0.217950000000     0.359000000000     0.552800000000   
O      0.354950000000     0.279850000000     0.666800000000   
O      0.280000000000     0.220000000000     0.684750000000   
O      0.294950000000     0.294950000000     0.676500000000   
O      0.322600000000     0.274150000000     0.750000000000   
O      0.376500000000     0.253000000000     0.592500000000   
O      0.356200000000     0.212450000000     0.673400000000   
O      0.368350000000     0.236650000000     0.500000000000   
O      0.310550000000     0.189500000000     0.558800000000   
Si     0.313000000000     0.266900000000     0.694150000000   
Si     0.378400000000     0.256750000000     0.649450000000   
Si     0.358950000000     0.217950000000     0.552800000000   
O      0.075100000000     0.354950000000     0.666800000000   
O      0.060000000000     0.280000000000     0.684750000000   
O      0.000000000000     0.294950000000     0.676500000000   
O      0.048450000000     0.322600000000     0.750000000000   
O      0.123500000000     0.376500000000     0.592500000000   
O      0.143750000000     0.356200000000     0.673400000000   
O      0.131700000000     0.368350000000     0.500000000000   
O      0.121050000000     0.310550000000     0.558800000000   
Si     0.046100000000     0.313000000000     0.694150000000   
Si     0.121650000000     0.378400000000     0.649450000000   
Si     0.141000000000     0.358950000000     0.552800000000   
O      0.424900000000     0.279850000000     0.833200000000   
O      0.440000000000     0.220000000000     0.815250000000   
O      0.000000000000     0.294950000000     0.823500000000   
O      0.451550000000     0.274150000000     0.750000000000   
O      0.376500000000     0.253000000000     0.907500000000   
O      0.356250000000     0.212450000000     0.826600000000   
O      0.378950000000     0.189500000000     0.941200000000   
Si     0.453900000000     0.266900000000     0.805850000000   
Si     0.378350000000     0.256750000000     0.850550000000   
Si     0.359000000000     0.217950000000     0.947200000000   
Si     0.333350000000     0.166650000000     0.806950000000   
O      0.145050000000     0.424900000000     0.833200000000   
O      0.220000000000     0.440000000000     0.815250000000   
O      0.205050000000     0.000000000000     0.823500000000   
O      0.177400000000     0.451550000000     0.750000000000   
O      0.123500000000     0.376500000000     0.907500000000   
O      0.143800000000     0.356250000000     0.826600000000   
O      0.189450000000     0.378950000000     0.941200000000   
Si     0.187000000000     0.453900000000     0.805850000000   
Si     0.121600000000     0.378350000000     0.850550000000   
Si     0.141050000000     0.359000000000     0.947200000000   
Si     0.166700000000     0.333350000000     0.806950000000   
O      0.220150000000     0.145050000000     0.833200000000   
O      0.280000000000     0.220000000000     0.815250000000   
O      0.205050000000     0.205050000000     0.823500000000   
O      0.225850000000     0.177400000000     0.750000000000   
O      0.247000000000     0.123500000000     0.907500000000   
O      0.287550000000     0.143800000000     0.826600000000   
O      0.310500000000     0.189450000000     0.941200000000   
Si     0.233100000000     0.187000000000     0.805850000000   
Si     0.243250000000     0.121600000000     0.850550000000   
Si     0.282050000000     0.141050000000     0.947200000000   
O      0.075100000000     0.220150000000     0.833200000000   
O      0.060000000000     0.280000000000     0.815250000000   
O      0.000000000000     0.205050000000     0.823500000000   
O      0.048450000000     0.225850000000     0.750000000000   
O      0.123500000000     0.247000000000     0.907500000000   
O      0.143750000000     0.287550000000     0.826600000000   
O      0.121050000000     0.310500000000     0.941200000000   
Si     0.046100000000     0.233100000000     0.805850000000   
Si     0.121650000000     0.243250000000     0.850550000000   
Si     0.141000000000     0.282050000000     0.947200000000   
O      0.354950000000     0.075100000000     0.833200000000   
O      0.280000000000     0.060000000000     0.815250000000   
O      0.294950000000     0.000000000000     0.823500000000   
O      0.322600000000     0.048450000000     0.750000000000   
O      0.376500000000     0.123500000000     0.907500000000   
O      0.356200000000     0.143750000000     0.826600000000   
O      0.310550000000     0.121050000000     0.941200000000   
Si     0.313000000000     0.046100000000     0.805850000000   
Si     0.378400000000     0.121650000000     0.850550000000   
Si     0.358950000000     0.141000000000     0.947200000000   
O      0.279850000000     0.354950000000     0.833200000000   
O      0.220000000000     0.280000000000     0.815250000000   
O      0.294950000000     0.294950000000     0.823500000000   
O      0.274150000000     0.322600000000     0.750000000000   
O      0.253000000000     0.376500000000     0.907500000000   
O      0.212450000000     0.356200000000     0.826600000000   
O      0.189500000000     0.310550000000     0.941200000000   
Si     0.266900000000     0.313000000000     0.805850000000   
Si     0.256750000000     0.378400000000     0.850550000000   
Si     0.217950000000     0.358950000000     0.947200000000   
O      0.279850000000     0.424900000000     0.833200000000   
Si     0.266900000000     0.453900000000     0.805850000000   
O      0.354950000000     0.279850000000     0.833200000000   
Si     0.313000000000     0.266900000000     0.805850000000   
O      0.075100000000     0.354950000000     0.833200000000   
Si     0.046100000000     0.313000000000     0.805850000000   
O      0.220150000000     0.075100000000     0.833200000000   
Si     0.233100000000     0.046100000000     0.805850000000   
O      0.145050000000     0.220150000000     0.833200000000   
Si     0.187000000000     0.233100000000     0.805850000000   
O      0.424900000000     0.145050000000     0.833200000000   
Si     0.453900000000     0.187000000000     0.805850000000   
O      0.075100000000     0.220150000000     0.666800000000   
Si     0.046100000000     0.233100000000     0.694150000000   
O      0.354950000000     0.075100000000     0.666800000000   
Si     0.313000000000     0.046100000000     0.694150000000   
O      0.279850000000     0.354950000000     0.666800000000   
Si     0.266900000000     0.313000000000     0.694150000000   
O      0.424900000000     0.279850000000     0.666800000000   
Si     0.453900000000     0.266900000000     0.694150000000   
O      0.145050000000     0.424900000000     0.666800000000   
Si     0.187000000000     0.453900000000     0.694150000000   
O      0.220150000000     0.145050000000     0.666800000000   
Si     0.233100000000     0.187000000000     0.694150000000   
O      0.220150000000     0.575100000000     0.166800000000   
O      0.280000000000     0.560000000000     0.184750000000   
O      0.205050000000     0.500000000000     0.176500000000   
O      0.225850000000     0.548450000000     0.250000000000   
O      0.247000000000     0.623500000000     0.092500000000   
O      0.287550000000     0.643750000000     0.173400000000   
O      0.263350000000     0.631700000000     0.000000000000   
O      0.310500000000     0.621050000000     0.058800000000   
O      0.333350000000     0.666650000000     0.250000000000   
Si     0.233100000000     0.546100000000     0.194150000000   
Si     0.243250000000     0.621650000000     0.149450000000   
Si     0.282050000000     0.641000000000     0.052800000000   
Si     0.333350000000     0.666650000000     0.193050000000   
O      0.145050000000     0.720150000000     0.166800000000   
O      0.220000000000     0.780000000000     0.184750000000   
O      0.205050000000     0.705050000000     0.176500000000   
O      0.177400000000     0.725850000000     0.250000000000   
O      0.123500000000     0.747000000000     0.092500000000   
O      0.143800000000     0.787550000000     0.173400000000   
O      0.131650000000     0.763350000000     0.000000000000   
O      0.189450000000     0.810500000000     0.058800000000   
O      0.166700000000     0.833350000000     0.250000000000   
Si     0.187000000000     0.733100000000     0.194150000000   
Si     0.121600000000     0.743250000000     0.149450000000   
Si     0.141050000000     0.782050000000     0.052800000000   
Si     0.166700000000     0.833350000000     0.193050000000   
O      0.424900000000     0.645050000000     0.166800000000   
O      0.440000000000     0.720000000000     0.184750000000   
O      0.000000000000     0.705050000000     0.176500000000   
O      0.451550000000     0.677400000000     0.250000000000   
O      0.376500000000     0.623500000000     0.092500000000   
O      0.356250000000     0.643800000000     0.173400000000   
O      0.368300000000     0.631650000000     0.000000000000   
O      0.378950000000     0.689450000000     0.058800000000   
Si     0.453900000000     0.687000000000     0.194150000000   
Si     0.378350000000     0.621600000000     0.149450000000   
Si     0.359000000000     0.641050000000     0.052800000000   
O      0.279850000000     0.924900000000     0.166800000000   
O      0.220000000000     0.940000000000     0.184750000000   
O      0.294950000000     0.500000000000     0.176500000000   
O      0.274150000000     0.951550000000     0.250000000000   
O      0.253000000000     0.876500000000     0.092500000000   
O      0.212450000000     0.856250000000     0.173400000000   
O      0.236650000000     0.868300000000     0.000000000000   
O      0.189500000000     0.878950000000     0.058800000000   
Si     0.266900000000     0.953900000000     0.194150000000   
Si     0.256750000000     0.878350000000     0.149450000000   
Si     0.217950000000     0.859000000000     0.052800000000   
O      0.354950000000     0.779850000000     0.166800000000   
O      0.280000000000     0.720000000000     0.184750000000   
O      0.294950000000     0.794950000000     0.176500000000   
O      0.322600000000     0.774150000000     0.250000000000   
O      0.376500000000     0.753000000000     0.092500000000   
O      0.356200000000     0.712450000000     0.173400000000   
O      0.368350000000     0.736650000000     0.000000000000   
O      0.310550000000     0.689500000000     0.058800000000   
Si     0.313000000000     0.766900000000     0.194150000000   
Si     0.378400000000     0.756750000000     0.149450000000   
Si     0.358950000000     0.717950000000     0.052800000000   
O      0.075100000000     0.854950000000     0.166800000000   
O      0.060000000000     0.780000000000     0.184750000000   
O      0.000000000000     0.794950000000     0.176500000000   
O      0.048450000000     0.822600000000     0.250000000000   
O      0.123500000000     0.876500000000     0.092500000000   
O      0.143750000000     0.856200000000     0.173400000000   
O      0.131700000000     0.868350000000     0.000000000000   
O      0.121050000000     0.810550000000     0.058800000000   
Si     0.046100000000     0.813000000000     0.194150000000   
Si     0.121650000000     0.878400000000     0.149450000000   
Si     0.141000000000     0.858950000000     0.052800000000   
O      0.424900000000     0.779850000000     0.333200000000   
O      0.440000000000     0.720000000000     0.315250000000   
O      0.000000000000     0.794950000000     0.323500000000   
O      0.451550000000     0.774150000000     0.250000000000   
O      0.376500000000     0.753000000000     0.407500000000   
O      0.356250000000     0.712450000000     0.326600000000   
O      0.378950000000     0.689500000000     0.441200000000   
Si     0.453900000000     0.766900000000     0.305850000000   
Si     0.378350000000     0.756750000000     0.350550000000   
Si     0.359000000000     0.717950000000     0.447200000000   
Si     0.333350000000     0.666650000000     0.306950000000   
O      0.145050000000     0.924900000000     0.333200000000   
O      0.220000000000     0.940000000000     0.315250000000   
O      0.205050000000     0.500000000000     0.323500000000   
O      0.177400000000     0.951550000000     0.250000000000   
O      0.123500000000     0.876500000000     0.407500000000   
O      0.143800000000     0.856250000000     0.326600000000   
O      0.189450000000     0.878950000000     0.441200000000   
Si     0.187000000000     0.953900000000     0.305850000000   
Si     0.121600000000     0.878350000000     0.350550000000   
Si     0.141050000000     0.859000000000     0.447200000000   
Si     0.166700000000     0.833350000000     0.306950000000   
O      0.220150000000     0.645050000000     0.333200000000   
O      0.280000000000     0.720000000000     0.315250000000   
O      0.205050000000     0.705050000000     0.323500000000   
O      0.225850000000     0.677400000000     0.250000000000   
O      0.247000000000     0.623500000000     0.407500000000   
O      0.287550000000     0.643800000000     0.326600000000   
O      0.310500000000     0.689450000000     0.441200000000   
Si     0.233100000000     0.687000000000     0.305850000000   
Si     0.243250000000     0.621600000000     0.350550000000   
Si     0.282050000000     0.641050000000     0.447200000000   
O      0.075100000000     0.720150000000     0.333200000000   
O      0.060000000000     0.780000000000     0.315250000000   
O      0.000000000000     0.705050000000     0.323500000000   
O      0.048450000000     0.725850000000     0.250000000000   
O      0.123500000000     0.747000000000     0.407500000000   
O      0.143750000000     0.787550000000     0.326600000000   
O      0.121050000000     0.810500000000     0.441200000000   
Si     0.046100000000     0.733100000000     0.305850000000   
Si     0.121650000000     0.743250000000     0.350550000000   
Si     0.141000000000     0.782050000000     0.447200000000   
O      0.354950000000     0.575100000000     0.333200000000   
O      0.280000000000     0.560000000000     0.315250000000   
O      0.294950000000     0.500000000000     0.323500000000   
O      0.322600000000     0.548450000000     0.250000000000   
O      0.376500000000     0.623500000000     0.407500000000   
O      0.356200000000     0.643750000000     0.326600000000   
O      0.310550000000     0.621050000000     0.441200000000   
Si     0.313000000000     0.546100000000     0.305850000000   
Si     0.378400000000     0.621650000000     0.350550000000   
Si     0.358950000000     0.641000000000     0.447200000000   
O      0.279850000000     0.854950000000     0.333200000000   
O      0.220000000000     0.780000000000     0.315250000000   
O      0.294950000000     0.794950000000     0.323500000000   
O      0.274150000000     0.822600000000     0.250000000000   
O      0.253000000000     0.876500000000     0.407500000000   
O      0.212450000000     0.856200000000     0.326600000000   
O      0.189500000000     0.810550000000     0.441200000000   
Si     0.266900000000     0.813000000000     0.305850000000   
Si     0.256750000000     0.878400000000     0.350550000000   
Si     0.217950000000     0.858950000000     0.447200000000   
O      0.279850000000     0.924900000000     0.333200000000   
Si     0.266900000000     0.953900000000     0.305850000000   
O      0.354950000000     0.779850000000     0.333200000000   
Si     0.313000000000     0.766900000000     0.305850000000   
O      0.075100000000     0.854950000000     0.333200000000   
Si     0.046100000000     0.813000000000     0.305850000000   
O      0.220150000000     0.575100000000     0.333200000000   
Si     0.233100000000     0.546100000000     0.305850000000   
O      0.145050000000     0.720150000000     0.333200000000   
Si     0.187000000000     0.733100000000     0.305850000000   
O      0.424900000000     0.645050000000     0.333200000000   
Si     0.453900000000     0.687000000000     0.305850000000   
O      0.075100000000     0.720150000000     0.166800000000   
Si     0.046100000000     0.733100000000     0.194150000000   
O      0.354950000000     0.575100000000     0.166800000000   
Si     0.313000000000     0.546100000000     0.194150000000   
O      0.279850000000     0.854950000000     0.166800000000   
Si     0.266900000000     0.813000000000     0.194150000000   
O      0.424900000000     0.779850000000     0.166800000000   
Si     0.453900000000     0.766900000000     0.194150000000   
O      0.145050000000     0.924900000000     0.166800000000   
Si     0.187000000000     0.953900000000     0.194150000000   
O      0.220150000000     0.645050000000     0.166800000000   
Si     0.233100000000     0.687000000000     0.194150000000   
O      0.220150000000     0.575100000000     0.666800000000   
O      0.280000000000     0.560000000000     0.684750000000   
O      0.205050000000     0.500000000000     0.676500000000   
O      0.225850000000     0.548450000000     0.750000000000   