%BLOCK LATTICE_CART
ang    # angstrom units
  9.873000000000     0.000000000000     0.000000000000   
  0.000000000000     5.254000000000     0.000000000000   
  0.000000000000     0.000000000000     8.770000000000   
%ENDBLOCK LATTICE_CART

%BLOCK POSITIONS_FRAC
O      0.166666666667     0.050000000000     0.117433333333   
O      0.103333333333     0.000000000000     0.166666666667   
O      0.083333333333     0.050000000000     0.083333333333   
Si     0.114266666667     0.050000000000     0.133566666667   
O      0.230000000000     0.100000000000     0.166666666667   
O      0.250000000000     0.050000000000     0.083333333333   
Si     0.219066666667     0.050000000000     0.133566666667   
O      0.166666666667     0.150000000000     0.215900000000   
O      0.083333333333     0.150000000000     0.250000000000   
Si     0.114266666667     0.150000000000     0.199766666667   
O      0.250000000000     0.150000000000     0.250000000000   
Si     0.219066666667     0.150000000000     0.199766666667   
O      0.230000000000     0.000000000000     0.166666666667   
O      0.103333333333     0.100000000000     0.166666666667   
O      0.000000000000     0.150000000000     0.284100000000   
O      0.270000000000     0.100000000000     0.000000000000   
Si     0.280933333333     0.150000000000     0.300233333333   
O      0.063333333333     0.000000000000     0.000000000000   
Si     0.052400000000     0.150000000000     0.300233333333   
O      0.000000000000     0.050000000000     0.049233333333   
Si     0.280933333333     0.050000000000     0.033100000000   
Si     0.052400000000     0.050000000000     0.033100000000   
O      0.063333333333     0.100000000000     0.000000000000   
O      0.270000000000     0.000000000000     0.000000000000   
O      0.166666666667     0.050000000000     0.450766666667   
O      0.103333333333     0.000000000000     0.500000000000   
O      0.083333333333     0.050000000000     0.416666666667   
Si     0.114266666667     0.050000000000     0.466900000000   
O      0.230000000000     0.100000000000     0.500000000000   
O      0.250000000000     0.050000000000     0.416666666667   
Si     0.219066666667     0.050000000000     0.466900000000   
O      0.166666666667     0.150000000000     0.549233333333   
O      0.083333333333     0.150000000000     0.583333333333   
Si     0.114266666667     0.150000000000     0.533100000000   
O      0.250000000000     0.150000000000     0.583333333333   
Si     0.219066666667     0.150000000000     0.533100000000   
O      0.230000000000     0.000000000000     0.500000000000   
O      0.103333333333     0.100000000000     0.500000000000   
O      0.000000000000     0.150000000000     0.617433333333   
O      0.270000000000     0.100000000000     0.333333333333   
Si     0.280933333333     0.150000000000     0.633566666667   
O      0.063333333333     0.000000000000     0.333333333333   
Si     0.052400000000     0.150000000000     0.633566666667   
O      0.000000000000     0.050000000000     0.382566666667   
Si     0.280933333333     0.050000000000     0.366433333333   
Si     0.052400000000     0.050000000000     0.366433333333   
O      0.063333333333     0.100000000000     0.333333333333   
O      0.270000000000     0.000000000000     0.333333333333   
O      0.166666666667     0.050000000000     0.784100000000   
O      0.103333333333     0.000000000000     0.833333333333   
O      0.083333333333     0.050000000000     0.750000000000   
Si     0.114266666667     0.050000000000     0.800233333333   
O      0.230000000000     0.100000000000     0.833333333333   
O      0.250000000000     0.050000000000     0.750000000000   
Si     0.219066666667     0.050000000000     0.800233333333   
O      0.166666666667     0.150000000000     0.882566666667   
O      0.083333333333     0.150000000000     0.916666666667   
Si     0.114266666667     0.150000000000     0.866433333333   
O      0.250000000000     0.150000000000     0.916666666667   
Si     0.219066666667     0.150000000000     0.866433333333   
O      0.230000000000     0.000000000000     0.833333333333   
O      0.103333333333     0.100000000000     0.833333333333   
O      0.000000000000     0.150000000000     0.950766666667   
O      0.270000000000     0.100000000000     0.666666666667   
Si     0.280933333333     0.150000000000     0.966900000000   
O      0.063333333333     0.000000000000     0.666666666667   
Si     0.052400000000     0.150000000000     0.966900000000   
O      0.000000000000     0.050000000000     0.715900000000   
Si     0.280933333333     0.050000000000     0.699766666667   
Si     0.052400000000     0.050000000000     0.699766666667   
O      0.063333333333     0.100000000000     0.666666666667   
O      0.270000000000     0.000000000000     0.666666666667   
O      0.166666666667     0.250000000000     0.117433333333   
O      0.103333333333     0.200000000000     0.166666666667   
O      0.083333333333     0.250000000000     0.083333333333   
Si     0.114266666667     0.250000000000     0.133566666667   
O      0.230000000000     0.300000000000     0.166666666667   
O      0.250000000000     0.250000000000     0.083333333333   
Si     0.219066666667     0.250000000000     0.133566666667   
O      0.166666666667     0.350000000000     0.215900000000   
O      0.083333333333     0.350000000000     0.250000000000   
Si     0.114266666667     0.350000000000     0.199766666667   
O      0.250000000000     0.350000000000     0.250000000000   
Si     0.219066666667     0.350000000000     0.199766666667   
O      0.230000000000     0.200000000000     0.166666666667   
O      0.103333333333     0.300000000000     0.166666666667   
O      0.000000000000     0.350000000000     0.284100000000   
O      0.270000000000     0.300000000000     0.000000000000   
Si     0.280933333333     0.350000000000     0.300233333333   
O      0.063333333333     0.200000000000     0.000000000000   
Si     0.052400000000     0.350000000000     0.300233333333   
O      0.000000000000     0.250000000000     0.049233333333   
Si     0.280933333333     0.250000000000     0.033100000000   
Si     0.052400000000     0.250000000000     0.033100000000   
O      0.063333333333     0.300000000000     0.000000000000   
O      0.270000000000     0.200000000000     0.000000000000   
O      0.166666666667     0.250000000000     0.450766666667   
O      0.103333333333     0.200000000000     0.500000000000   
O      0.083333333333     0.250000000000     0.416666666667   
Si     0.114266666667     0.250000000000     0.466900000000   
O      0.230000000000     0.300000000000     0.500000000000   
O      0.250000000000     0.250000000000     0.416666666667   
Si     0.219066666667     0.250000000000     0.466900000000   
O      0.166666666667     0.350000000000     0.549233333333   
O      0.083333333333     0.350000000000     0.583333333333   
Si     0.114266666667     0.350000000000     0.533100000000   
O      0.250000000000     0.350000000000     0.583333333333   
Si     0.219066666667     0.350000000000     0.533100000000   
O      0.230000000000     0.200000000000     0.500000000000   
O      0.103333333333     0.300000000000     0.500000000000   
O      0.000000000000     0.350000000000     0.617433333333   
O      0.270000000000     0.300000000000     0.333333333333   
Si     0.280933333333     0.350000000000     0.633566666667   
O      0.063333333333     0.200000000000     0.333333333333   
Si     0.052400000000     0.350000000000     0.633566666667   
O      0.000000000000     0.250000000000     0.382566666667   
Si     0.280933333333     0.250000000000     0.366433333333   
Si     0.052400000000     0.250000000000     0.366433333333   
O      0.063333333333     0.300000000000     0.333333333333   
O      0.270000000000     0.200000000000     0.333333333333   
O      0.166666666667     0.250000000000     0.784100000000   
O      0.103333333333     0.200000000000     0.833333333333   
O      0.083333333333     0.250000000000     0.750000000000   
Si     0.114266666667     0.250000000000     0.800233333333   
O      0.230000000000     0.300000000000     0.833333333333   
O      0.250000000000     0.250000000000     0.750000000000   
Si     0.219066666667     0.250000000000     0.800233333333   
O      0.166666666667     0.350000000000     0.882566666667   
O      0.083333333333     0.350000000000     0.916666666667   
Si     0.114266666667     0.350000000000     0.866433333333   
O      0.250000000000     0.350000000000     0.916666666667   
Si     0.219066666667     0.350000000000     0.866433333333   
O      0.230000000000     0.200000000000     0.833333333333   
O      0.103333333333     0.300000000000     0.833333333333   
O      0.000000000000     0.350000000000     0.950766666667   
O      0.270000000000     0.300000000000     0.666666666667   
Si     0.280933333333     0.350000000000     0.966900000000   
O      0.063333333333     0.200000000000     0.666666666667   
Si     0.052400000000     0.350000000000     0.966900000000   
O      0.000000000000     0.250000000000     0.715900000000   
Si     0.280933333333     0.250000000000     0.699766666667   
Si     0.052400000000     0.250000000000     0.699766666667   
O      0.063333333333     0.300000000000     0.666666666667   
O      0.270000000000     0.200000000000     0.666666666667   
O      0.166666666667     0.450000000000     0.117433333333   
O      0.103333333333     0.400000000000     0.166666666667   
O      0.083333333333     0.450000000000     0.083333333333   
Si     0.114266666667     0.450000000000     0.133566666667   
O      0.230000000000     0.500000000000     0.166666666667   
O      0.250000000000     0.450000000000     0.083333333333   
Si     0.219066666667     0.450000000000     0.133566666667   
O      0.166666666667     0.550000000000     0.215900000000   
O      0.083333333333     0.550000000000     0.250000000000   
Si     0.114266666667     0.550000000000     0.199766666667   
O      0.250000000000     0.550000000000     0.250000000000   
Si     0.219066666667     0.550000000000     0.199766666667   
O      0.230000000000     0.400000000000     0.166666666667   
O      0.103333333333     0.500000000000     0.166666666667   
O      0.000000000000     0.550000000000     0.284100000000   
O      0.270000000000     0.500000000000     0.000000000000   
Si     0.280933333333     0.550000000000     0.300233333333   
O      0.063333333333     0.400000000000     0.000000000000   
Si     0.052400000000     0.550000000000     0.300233333333   
O      0.000000000000     0.450000000000     0.049233333333   
Si     0.280933333333     0.450000000000     0.033100000000   
Si     0.052400000000     0.450000000000     0.033100000000   
O      0.063333333333     0.500000000000     0.000000000000   
O      0.270000000000     0.400000000000     0.000000000000   
O      0.166666666667     0.450000000000     0.450766666667   
O      0.103333333333     0.400000000000     0.500000000000   
O      0.083333333333     0.450000000000     0.416666666667   
Si     0.114266666667     0.450000000000     0.466900000000   
O      0.230000000000     0.500000000000     0.500000000000   
O      0.250000000000     0.450000000000     0.416666666667   
Si     0.219066666667     0.450000000000     0.466900000000   
O      0.166666666667     0.550000000000     0.549233333333   
O      0.083333333333     0.550000000000     0.583333333333   
Si     0.114266666667     0.550000000000     0.533100000000   
O      0.250000000000     0.550000000000     0.583333333333   
Si     0.219066666667     0.550000000000     0.533100000000   
O      0.230000000000     0.400000000000     0.500000000000   
O      0.103333333333     0.500000000000     0.500000000000   
O      0.000000000000     0.550000000000     0.617433333333   
O      0.270000000000     0.500000000000     0.333333333333   
Si     0.280933333333     0.550000000000     0.633566666667   
O      0.063333333333     0.400000000000     0.333333333333   
Si     0.052400000000     0.550000000000     0.633566666667   
O      0.000000000000     0.450000000000     0.382566666667   
Si     0.280933333333     0.450000000000     0.366433333333   
Si     0.052400000000     0.450000000000     0.366433333333   
O      0.063333333333     0.500000000000     0.333333333333   
O      0.270000000000     0.400000000000     0.333333333333   
O      0.166666666667     0.450000000000     0.784100000000   
O      0.103333333333     0.400000000000     0.833333333333   
O      0.083333333333     0.450000000000     0.750000000000   
Si     0.114266666667     0.450000000000     0.800233333333   
O      0.230000000000     0.500000000000     0.833333333333   
O      0.250000000000     0.450000000000     0.750000000000   
Si     0.219066666667     0.450000000000     0.800233333333   
O      0.166666666667     0.550000000000     0.882566666667   
O      0.083333333333     0.550000000000     0.916666666667   
Si     0.114266666667     0.550000000000     0.866433333333   
O      0.250000000000     0.550000000000     0.916666666667   
Si     0.219066666667     0.550000000000     0.866433333333   
O      0.230000000000     0.400000000000     0.833333333333   
O      0.103333333333     0.500000000000     0.833333333333   
O      0.000000000000     0.550000000000     0.950766666667   
O      0.270000000000     0.500000000000     0.666666666667   
Si     0.280933333333     0.550000000000     0.966900000000   
O      0.063333333333     0.400000000000     0.666666666667   
Si     0.052400000000     0.550000000000     0.966900000000   
O      0.000000000000     0.450000000000     0.715900000000   
Si     0.280933333333     0.450000000000     0.699766666667   
Si     0.052400000000     0.450000000000     0.699766666667   
O      0.063333333333     0.500000000000     0.666666666667   
O      0.270000000000     0.400000000000     0.666666666667   
O      0.166666666667     0.650000000000     0.117433333333   
O      0.103333333333     0.600000000000     0.166666666667   
O      0.083333333333     0.650000000000     0.083333333333   
Si     0.114266666667     0.650000000000     0.133566666667   
O      0.230000000000     0.700000000000     0.166666666667   
O      0.250000000000     0.650000000000     0.083333333333   
Si     0.219066666667     0.650000000000     0.133566666667   
O      0.166666666667     0.750000000000     0.215900000000   
O      0.083333333333     0.750000000000     0.250000000000   
Si     0.114266666667     0.750000000000     0.199766666667   
O      0.250000000000     0.750000000000     0.250000000000   
Si     0.219066666667     0.750000000000     0.199766666667   
O      0.230000000000     0.600000000000     0.166666666667   
O      0.103333333333     0.700000000000     0.166666666667   
O      0.000000000000     0.750000000000     0.284100000000   
O      0.270000000000     0.700000000000     0.000000000000   
Si     0.280933333333     0.750000000000     0.300233333333   
O      0.063333333333     0.600000000000     0.000000000000   
Si     0.052400000000     0.750000000000     0.300233333333   
O      0.000000000000     0.650000000000     0.049233333333   
Si     0.280933333333     0.650000000000     0.033100000000   
Si     0.052400000000     0.650000000000     0.033100000000   
O      0.063333333333     0.700000000000     0.000000000000   
O      0.270000000000     0.600000000000     0.000000000000   
O      0.166666666667     0.650000000000     0.450766666667   
O      0.103333333333     0.600000000000     0.500000000000   
O      0.083333333333     0.650000000000     0.416666666667   
Si     0.114266666667     0.650000000000     0.466900000000   
O      0.230000000000     0.700000000000     0.500000000000   
O      0.250000000000     0.650000000000     0.416666666667   
Si     0.219066666667     0.650000000000     0.466900000000   
O      0.166666666667     0.750000000000     0.549233333333   
O      0.083333333333     0.750000000000     0.583333333333   
Si     0.114266666667     0.750000000000     0.533100000000   
O      0.250000000000     0.750000000000     0.583333333333   
Si     0.219066666667     0.750000000000     0.533100000000   
O      0.230000000000     0.600000000000     0.500000000000   
O      0.103333333333     0.700000000000     0.500000000000   
O      0.000000000000     0.750000000000     0.617433333333   
O      0.270000000000     0.700000000000     0.333333333333   
Si     0.280933333333     0.750000000000     0.633566666667   
O      0.063333333333     0.600000000000     0.333333333333   
Si     0.052400000000     0.750000000000     0.633566666667   
O      0.000000000000     0.650000000000     0.382566666667   
Si     0.280933333333     0.650000000000     0.366433333333   
Si     0.052400000000     0.650000000000     0.366433333333   
O      0.063333333333     0.700000000000     0.333333333333   
O      0.270000000000     0.600000000000     0.333333333333   
O      0.166666666667     0.650000000000     0.784100000000   
O      0.103333333333     0.600000000000     0.833333333333   
O      0.083333333333     0.650000000000     0.750000000000   
Si     0.114266666667     0.650000000000     0.800233333333   
O      0.230000000000     0.700000000000     0.833333333333   
O      0.250000000000     0.650000000000     0.750000000000   
Si     0.219066666667     0.650000000000     0.800233333333   
O      0.166666666667     0.750000000000     0.882566666667   
O      0.083333333333     0.750000000000     0.916666666667   
Si     0.114266666667     0.750000000000     0.866433333333   
O      0.250000000000     0.750000000000     0.916666666667   
Si     0.219066666667     0.750000000000     0.866433333333   
O      0.230000000000     0.600000000000     0.833333333333   
O      0.103333333333     0.700000000000     0.833333333333   
O      0.000000000000     0.750000000000     0.950766666667   
O      0.270000000000     0.700000000000     0.666666666667   
Si     0.280933333333     0.750000000000     0.966900000000   
O      0.063333333333     0.600000000000     0.666666666667   
Si     0.052400000000     0.750000000000     0.966900000000   
O      0.000000000000     0.650000000000     0.715900000000   
Si     0.280933333333     0.650000000000     0.699766666667   
Si     0.052400000000     0.650000000000     0.699766666667   
O      0.063333333333     0.700000000000     0.666666666667   
O      0.270000000000     0.600000000000     0.666666666667   
O      0.166666666667     0.850000000000     0.117433333333   
O      0.103333333333     0.800000000000     0.166666666667   
O      0.083333333333     0.850000000000     0.083333333333   
Si     0.114266666667     0.850000000000     0.133566666667   
O      0.230000000000     0.900000000000     0.166666666667   
O      0.250000000000     0.850000000000     0.083333333333   
Si     0.219066666667     0.850000000000     0.133566666667   
O      0.166666666667     0.950000000000     0.215900000000   
O      0.083333333333     0.950000000000     0.250000000000   
Si     0.114266666667     0.950000000000     0.199766666667   
O      0.250000000000     0.950000000000     0.250000000000   
Si     0.219066666667     0.950000000000     0.199766666667   
O      0.230000000000     0.800000000000     0.166666666667   
O      0.103333333333     0.900000000000     0.166666666667   
O      0.000000000000     0.950000000000     0.284100000000   
O      0.270000000000     0.900000000000     0.000000000000   
Si     0.280933333333     0.950000000000     0.300233333333   
O      0.063333333333     0.800000000000     0.000000000000   
Si     0.052400000000     0.950000000000     0.300233333333   
O      0.000000000000     0.850000000000     0.049233333333   
Si     0.280933333333     0.850000000000     0.033100000000   
Si     0.052400000000     0.850000000000     0.033100000000   
O      0.063333333333     0.900000000000     0.000000000000   
O      0.270000000000     0.800000000000     0.000000000000   
O      0.166666666667     0.850000000000     0.450766666667   
O      0.103333333333     0.800000000000     0.500000000000   
O      0.083333333333     0.850000000000     0.416666666667   
Si     0.114266666667     0.850000000000     0.466900000000   
O      0.230000000000     0.900000000000     0.500000000000   
O      0.250000000000     0.850000000000     0.416666666667   
Si     0.219066666667     0.850000000000     0.466900000000   
O      0.166666666667     0.950000000000     0.549233333333   
O      0.083333333333     0.950000000000     0.583333333333   
Si     0.114266666667     0.950000000000     0.533100000000   
O      0.250000000000     0.950000000000     0.583333333333   
Si     0.219066666667     0.950000000000     0.533100000000   
O      0.230000000000     0.800000000000     0.500000000000   
O      0.103333333333     0.900000000000     0.500000000000   
O      0.000000000000     0.950000000000     0.617433333333   
O      0.270000000000     0.900000000000     0.333333333333   
Si     0.280933333333     0.950000000000     0.633566666667   
O      0.063333333333     0.800000000000     0.333333333333   
Si     0.052400000000     0.950000000000     0.633566666667   
O      0.000000000000     0.850000000000     0.382566666667   
Si     0.280933333333     0.850000000000     0.366433333333   
Si     0.052400000000     0.850000000000     0.366433333333   
O      0.063333333333     0.900000000000     0.333333333333   
O      0.270000000000     0.800000000000     0.333333333333   
O      0.166666666667     0.850000000000     0.784100000000   
O      0.103333333333     0.800000000000     0.833333333333   
O      0.083333333333     0.850000000000     0.750000000000   
Si     0.114266666667     0.850000000000     0.800233333333   
O      0.230000000000     0.900000000000     0.833333333333   
O      0.250000000000     0.850000000000     0.750000000000   
Si     0.219066666667     0.850000000000     0.800233333333   
O      0.166666666667     0.950000000000     0.882566666667   
O      0.083333333333     0.950000000000     0.916666666667   
Si     0.114266666667     0.950000000000     0.866433333333   
O      0.250000000000     0.950000000000     0.916666666667   
Si     0.219066666667     0.950000000000     0.866433333333   
O      0.230000000000     0.800000000000     0.833333333333   
O      0.103333333333     0.900000000000     0.833333333333   
O      0.000000000000     0.950000000000     0.950766666667   
O      0.270000000000     0.900000000000     0.666666666667   
Si     0.280933333333     0.950000000000     0.966900000000   
O      0.063333333333     0.800000000000     0.666666666667   
Si     0.052400000000     0.950000000000     0.966900000000   
O      0.000000000000     0.850000000000     0.715900000000   
Si     0.280933333333     0.850000000000     0.699766666667   
Si     0.052400000000     0.850000000000     0.699766666667   
O      0.063333333333     0.900000000000     0.666666666667   
O      0.270000000000     0.800000000000     0.666666666667   
O      0.500000000000     0.050000000000     0.117433333333   
O      0.436666666667     0.000000000000     0.166666666667   
O      0.416666666667     0.050000000000     0.083333333333   
Si     0.447600000000     0.050000000000     0.133566666667   
O      0.563333333333     0.100000000000     0.166666666667   
O      0.583333333333     0.050000000000     0.083333333333   
Si     0.552400000000     0.050000000000     0.133566666667   
O      0.500000000000     0.150000000000     0.215900000000   
O      0.416666666667     0.150000000000     0.250000000000   
Si     0.447600000000     0.150000000000     0.199766666667   
O      0.583333333333     0.150000000000     0.250000000000   
Si     0.552400000000     0.150000000000     0.199766666667   
O      0.563333333333     0.000000000000     0.166666666667   
O      0.436666666667     0.100000000000     0.166666666667   
O      0.333333333333     0.150000000000     0.284100000000   
O      0.603333333333     0.100000000000     0.000000000000   
Si     0.614266666667     0.150000000000     0.300233333333   
O      0.396666666667     0.000000000000     0.000000000000   
Si     0.385733333333     0.150000000000     0.300233333333   
O      0.333333333333     0.050000000000     0.049233333333   
Si     0.614266666667     0.050000000000     0.033100000000   
Si     0.385733333333     0.050000000000     0.033100000000   
O      0.396666666667     0.100000000000     0.000000000000   
O      0.603333333333     0.000000000000     0.000000000000   
O      0.500000000000     0.050000000000     0.450766666667   
O      0.436666666667     0.000000000000     0.500000000000   
O      0.416666666667     0.050000000000     0.416666666667   
Si     0.447600000000     0.050000000000     0.466900000000   
O      0.563333333333     0.100000000000     0.500000000000   
O      0.583333333333     0.050000000000     0.416666666667   
Si     0.552400000000     0.050000000000     0.466900000000   
O      0.500000000000     0.150000000000     0.549233333333   
O      0.416666666667     0.150000000000     0.583333333333   
Si     0.447600000000     0.150000000000     0.533100000000   
O      0.583333333333     0.150000000000     0.583333333333   
Si     0.552400000000     0.150000000000     0.533100000000   
O      0.563333333333     0.000000000000     0.500000000000   
O      0.436666666667     0.100000000000     0.500000000000   
O      0.333333333333     0.150000000000     0.617433333333   
O      0.603333333333     0.100000000000     0.333333333333   
Si     0.614266666667     0.150000000000     0.633566666667   
O      0.396666666667     0.000000000000     0.333333333333   
Si     0.385733333333     0.150000000000     0.633566666667   
O      0.333333333333     0.050000000000     0.382566666667   
Si     0.614266666667     0.050000000000     0.366433333333   
Si     0.385733333333     0.050000000000     0.366433333333   
O      0.396666666667     0.100000000000     0.333333333333   
O      0.603333333333     0.000000000000     0.333333333333   
O      0.500000000000     0.050000000000     0.784100000000   
O      0.436666666667     0.000000000000     0.833333333333   
O      0.416666666667     0.050000000000     0.750000000000   
Si     0.447600000000     0.050000000000     0.800233333333   
O      0.563333333333     0.100000000000     0.833333333333   
O      0.583333333333     0.050000000000     0.750000000000   
Si     0.552400000000     0.050000000000     0.800233333333   
O      0.500000000000     0.150000000000     0.882566666667   
O      0.416666666667     0.150000000000     0.916666666667   
Si     0.447600000000     0.150000000000     0.866433333333   
O      0.583333333333     0.150000000000     0.916666666667   
Si     0.552400000000     0.150000000000     0.866433333333   
O      0.563333333333     0.000000000000     0.833333333333   
O      0.436666666667     0.100000000000     0.833333333333   
O      0.333333333333     0.150000000000     0.950766666667   
O      0.603333333333     0.100000000000     0.666666666667   
Si     0.614266666667     0.150000000000     0.966900000000   
O      0.396666666667     0.000000000000     0.666666666667   
Si     0.385733333333     0.150000000000     0.966900000000   
O      0.333333333333     0.050000000000     0.715900000000   
Si     0.614266666667     0.050000000000     0.699766666667   
Si     0.385733333333     0.050000000000     0.699766666667   
O      0.396666666667     0.100000000000     0.666666666667   
O      0.603333333333     0.000000000000     0.666666666667   
O      0.500000000000     0.250000000000     0.117433333333   
O      0.436666666667     0.200000000000     0.166666666667   
O      0.416666666667     0.250000000000     0.083333333333   
Si     0.447600000000     0.250000000000     0.133566666667   
O      0.563333333333     0.300000000000     0.166666666667   
O      0.583333333333     0.250000000000     0.083333333333   
Si     0.552400000000     0.250000000000     0.133566666667   
O      0.500000000000     0.350000000000     0.215900000000   
O      0.416666666667     0.350000000000     0.250000000000   
Si     0.447600000000     0.350000000000     0.199766666667   
O      0.583333333333     0.350000000000     0.250000000000   
Si     0.552400000000     0.350000000000     0.199766666667   
O      0.563333333333     0.200000000000     0.166666666667   
O      0.436666666667     0.300000000000     0.166666666667   
O      0.333333333333     0.350000000000     0.284100000000   
O      0.603333333333     0.300000000000     0.000000000000   
Si     0.614266666667     0.350000000000     0.300233333333   
O      0.396666666667     0.200000000000     0.000000000000   
Si     0.385733333333     0.350000000000     0.300233333333   
O      0.333333333333     0.250000000000     0.049233333333   
Si     0.614266666667     0.250000000000     0.033100000000   
Si     0.385733333333     0.250000000000     0.033100000000   
O      0.396666666667     0.300000000000     0.000000000000   
O      0.603333333333     0.200000000000     0.000000000000   
O      0.500000000000     0.250000000000     0.450766666667   
O      0.436666666667     0.200000000000     0.500000000000   
O      0.416666666667     0.250000000000     0.416666666667   
Si     0.447600000000     0.250000000000     0.466900000000   
O      0.563333333333     0.300000000000     0.500000000000   
O      0.583333333333     0.250000000000     0.416666666667   
Si     0.552400000000     0.250000000000     0.466900000000   
O      0.500000000000     0.350000000000     0.549233333333   
O      0.416666666667     0.350000000000     0.583333333333   
Si     0.447600000000     0.350000000000     0.533100000000   
O      0.583333333333     0.350000000000     0.583333333333   
Si     0.552400000000     0.350000000000     0.533100000000   
O      0.563333333333     0.200000000000     0.500000000000   
O      0.436666666667     0.300000000000     0.500000000000   
O      0.333333333333     0.350000000000     0.617433333333   
O      0.603333333333     0.300000000000     0.333333333333   