%BLOCK LATTICE_CART
ang    # angstrom units
  9.250000000000     0.000000000000     0.000000000000   
  0.000000000000     9.250000000000     0.000000000000   
  0.000000000000     0.000000000000     10.083000000000  
%ENDBLOCK LATTICE_CART

%BLOCK POSITIONS_FRAC
O      0.087400000000     0.173600000000     0.058800000000   
O      0.153333333333     0.153333333333     0.000000000000   
O      0.122233333333     0.085366666667     0.053000000000   
O      0.177000000000     0.156333333333     0.083333333333   
O      0.144866666667     0.002400000000     0.087533333333   
Si     0.134800000000     0.141800000000     0.049333333333   
Si     0.129300000000     0.028966666667     0.042400000000   
O      0.326400000000     0.254066666667     0.142133333333   
O      0.013333333333     0.320000000000     0.083333333333   
O      0.081300000000     0.288900000000     0.136333333333   
O      0.010333333333     0.010333333333     0.166666666667   
O      0.164266666667     0.311533333333     0.170866666667   
Si     0.024866666667     0.301466666667     0.132666666667   
Si     0.137700000000     0.295966666667     0.125733333333   
O      0.245933333333     0.159733333333     0.225466666667   
O      0.180000000000     0.180000000000     0.166666666667   
O      0.211100000000     0.247966666667     0.219666666667   
O      0.156333333333     0.177000000000     0.250000000000   
O      0.188466666667     0.330933333333     0.254200000000   
Si     0.198533333333     0.191533333333     0.216000000000   
Si     0.204033333333     0.304366666667     0.209066666667   
O      0.006933333333     0.079266666667     0.308800000000   
O      0.320000000000     0.013333333333     0.250000000000   
O      0.252033333333     0.044433333333     0.303000000000   
O      0.323000000000     0.323000000000     0.000000000000   
O      0.169066666667     0.021800000000     0.004200000000   
Si     0.308466666667     0.031866666667     0.299333333333   
Si     0.195633333333     0.037366666667     0.292400000000   
O      0.254066666667     0.326400000000     0.191200000000   
O      0.288900000000     0.081300000000     0.197000000000   
O      0.311533333333     0.164266666667     0.162466666667   
Si     0.301466666667     0.024866666667     0.200666666667   
Si     0.295966666667     0.137700000000     0.207600000000   
O      0.173600000000     0.087400000000     0.274533333333   
O      0.085366666667     0.122233333333     0.280333333333   
O      0.002400000000     0.144866666667     0.245800000000   
Si     0.141800000000     0.134800000000     0.284000000000   
Si     0.028966666667     0.129300000000     0.290933333333   
O      0.079266666667     0.006933333333     0.024533333333   
O      0.044433333333     0.252033333333     0.030333333333   
O      0.021800000000     0.169066666667     0.329133333333   
Si     0.031866666667     0.308466666667     0.034000000000   
Si     0.037366666667     0.195633333333     0.040933333333   
O      0.159733333333     0.245933333333     0.107866666667   
O      0.247966666667     0.211100000000     0.113666666667   
O      0.330933333333     0.188466666667     0.079133333333   
Si     0.191533333333     0.198533333333     0.117333333333   
Si     0.304366666667     0.204033333333     0.124266666667   
O      0.087400000000     0.173600000000     0.392133333333   
O      0.153333333333     0.153333333333     0.333333333333   
O      0.122233333333     0.085366666667     0.386333333333   
O      0.177000000000     0.156333333333     0.416666666667   
O      0.144866666667     0.002400000000     0.420866666667   
Si     0.134800000000     0.141800000000     0.382666666667   
Si     0.129300000000     0.028966666667     0.375733333333   
O      0.326400000000     0.254066666667     0.475466666667   
O      0.013333333333     0.320000000000     0.416666666667   
O      0.081300000000     0.288900000000     0.469666666667   
O      0.010333333333     0.010333333333     0.500000000000   
O      0.164266666667     0.311533333333     0.504200000000   
Si     0.024866666667     0.301466666667     0.466000000000   
Si     0.137700000000     0.295966666667     0.459066666667   
O      0.245933333333     0.159733333333     0.558800000000   
O      0.180000000000     0.180000000000     0.500000000000   
O      0.211100000000     0.247966666667     0.553000000000   
O      0.156333333333     0.177000000000     0.583333333333   
O      0.188466666667     0.330933333333     0.587533333333   
Si     0.198533333333     0.191533333333     0.549333333333   
Si     0.204033333333     0.304366666667     0.542400000000   
O      0.006933333333     0.079266666667     0.642133333333   
O      0.320000000000     0.013333333333     0.583333333333   
O      0.252033333333     0.044433333333     0.636333333333   
O      0.323000000000     0.323000000000     0.333333333333   
O      0.169066666667     0.021800000000     0.337533333333   
Si     0.308466666667     0.031866666667     0.632666666667   
Si     0.195633333333     0.037366666667     0.625733333333   
O      0.254066666667     0.326400000000     0.524533333333   
O      0.288900000000     0.081300000000     0.530333333333   
O      0.311533333333     0.164266666667     0.495800000000   
Si     0.301466666667     0.024866666667     0.534000000000   
Si     0.295966666667     0.137700000000     0.540933333333   
O      0.173600000000     0.087400000000     0.607866666667   
O      0.085366666667     0.122233333333     0.613666666667   
O      0.002400000000     0.144866666667     0.579133333333   
Si     0.141800000000     0.134800000000     0.617333333333   
Si     0.028966666667     0.129300000000     0.624266666667   
O      0.079266666667     0.006933333333     0.357866666667   
O      0.044433333333     0.252033333333     0.363666666667   
O      0.021800000000     0.169066666667     0.662466666667   
Si     0.031866666667     0.308466666667     0.367333333333   
Si     0.037366666667     0.195633333333     0.374266666667   
O      0.159733333333     0.245933333333     0.441200000000   
O      0.247966666667     0.211100000000     0.447000000000   
O      0.330933333333     0.188466666667     0.412466666667   
Si     0.191533333333     0.198533333333     0.450666666667   
Si     0.304366666667     0.204033333333     0.457600000000   
O      0.087400000000     0.173600000000     0.725466666667   
O      0.153333333333     0.153333333333     0.666666666667   
O      0.122233333333     0.085366666667     0.719666666667   
O      0.177000000000     0.156333333333     0.750000000000   
O      0.144866666667     0.002400000000     0.754200000000   
Si     0.134800000000     0.141800000000     0.716000000000   
Si     0.129300000000     0.028966666667     0.709066666667   
O      0.326400000000     0.254066666667     0.808800000000   
O      0.013333333333     0.320000000000     0.750000000000   
O      0.081300000000     0.288900000000     0.803000000000   
O      0.010333333333     0.010333333333     0.833333333333   
O      0.164266666667     0.311533333333     0.837533333333   
Si     0.024866666667     0.301466666667     0.799333333333   
Si     0.137700000000     0.295966666667     0.792400000000   
O      0.245933333333     0.159733333333     0.892133333333   
O      0.180000000000     0.180000000000     0.833333333333   
O      0.211100000000     0.247966666667     0.886333333333   
O      0.156333333333     0.177000000000     0.916666666667   
O      0.188466666667     0.330933333333     0.920866666667   
Si     0.198533333333     0.191533333333     0.882666666667   
Si     0.204033333333     0.304366666667     0.875733333333   
O      0.006933333333     0.079266666667     0.975466666667   
O      0.320000000000     0.013333333333     0.916666666667   
O      0.252033333333     0.044433333333     0.969666666667   
O      0.323000000000     0.323000000000     0.666666666667   
O      0.169066666667     0.021800000000     0.670866666667   
Si     0.308466666667     0.031866666667     0.966000000000   
Si     0.195633333333     0.037366666667     0.959066666667   
O      0.254066666667     0.326400000000     0.857866666667   
O      0.288900000000     0.081300000000     0.863666666667   
O      0.311533333333     0.164266666667     0.829133333333   
Si     0.301466666667     0.024866666667     0.867333333333   
Si     0.295966666667     0.137700000000     0.874266666667   
O      0.173600000000     0.087400000000     0.941200000000   
O      0.085366666667     0.122233333333     0.947000000000   
O      0.002400000000     0.144866666667     0.912466666667   
Si     0.141800000000     0.134800000000     0.950666666667   
Si     0.028966666667     0.129300000000     0.957600000000   
O      0.079266666667     0.006933333333     0.691200000000   
O      0.044433333333     0.252033333333     0.697000000000   
O      0.021800000000     0.169066666667     0.995800000000   
Si     0.031866666667     0.308466666667     0.700666666667   
Si     0.037366666667     0.195633333333     0.707600000000   
O      0.159733333333     0.245933333333     0.774533333333   
O      0.247966666667     0.211100000000     0.780333333333   
O      0.330933333333     0.188466666667     0.745800000000   
Si     0.191533333333     0.198533333333     0.784000000000   
Si     0.304366666667     0.204033333333     0.790933333333   
O      0.087400000000     0.506933333333     0.058800000000   
O      0.153333333333     0.486666666667     0.000000000000   
O      0.122233333333     0.418700000000     0.053000000000   
O      0.177000000000     0.489666666667     0.083333333333   
O      0.144866666667     0.335733333333     0.087533333333   
Si     0.134800000000     0.475133333333     0.049333333333   
Si     0.129300000000     0.362300000000     0.042400000000   
O      0.326400000000     0.587400000000     0.142133333333   
O      0.013333333333     0.653333333333     0.083333333333   
O      0.081300000000     0.622233333333     0.136333333333   
O      0.010333333333     0.343666666667     0.166666666667   
O      0.164266666667     0.644866666667     0.170866666667   
Si     0.024866666667     0.634800000000     0.132666666667   
Si     0.137700000000     0.629300000000     0.125733333333   
O      0.245933333333     0.493066666667     0.225466666667   
O      0.180000000000     0.513333333333     0.166666666667   
O      0.211100000000     0.581300000000     0.219666666667   
O      0.156333333333     0.510333333333     0.250000000000   
O      0.188466666667     0.664266666667     0.254200000000   
Si     0.198533333333     0.524866666667     0.216000000000   
Si     0.204033333333     0.637700000000     0.209066666667   
O      0.006933333333     0.412600000000     0.308800000000   
O      0.320000000000     0.346666666667     0.250000000000   
O      0.252033333333     0.377766666667     0.303000000000   
O      0.323000000000     0.656333333333     0.000000000000   
O      0.169066666667     0.355133333333     0.004200000000   
Si     0.308466666667     0.365200000000     0.299333333333   
Si     0.195633333333     0.370700000000     0.292400000000   
O      0.254066666667     0.659733333333     0.191200000000   
O      0.288900000000     0.414633333333     0.197000000000   
O      0.311533333333     0.497600000000     0.162466666667   
Si     0.301466666667     0.358200000000     0.200666666667   
Si     0.295966666667     0.471033333333     0.207600000000   
O      0.173600000000     0.420733333333     0.274533333333   
O      0.085366666667     0.455566666667     0.280333333333   
O      0.002400000000     0.478200000000     0.245800000000   
Si     0.141800000000     0.468133333333     0.284000000000   
Si     0.028966666667     0.462633333333     0.290933333333   
O      0.079266666667     0.340266666667     0.024533333333   
O      0.044433333333     0.585366666667     0.030333333333   
O      0.021800000000     0.502400000000     0.329133333333   
Si     0.031866666667     0.641800000000     0.034000000000   
Si     0.037366666667     0.528966666667     0.040933333333   
O      0.159733333333     0.579266666667     0.107866666667   
O      0.247966666667     0.544433333333     0.113666666667   
O      0.330933333333     0.521800000000     0.079133333333   
Si     0.191533333333     0.531866666667     0.117333333333   
Si     0.304366666667     0.537366666667     0.124266666667   
O      0.087400000000     0.506933333333     0.392133333333   
O      0.153333333333     0.486666666667     0.333333333333   
O      0.122233333333     0.418700000000     0.386333333333   
O      0.177000000000     0.489666666667     0.416666666667   
O      0.144866666667     0.335733333333     0.420866666667   
Si     0.134800000000     0.475133333333     0.382666666667   
Si     0.129300000000     0.362300000000     0.375733333333   
O      0.326400000000     0.587400000000     0.475466666667   
O      0.013333333333     0.653333333333     0.416666666667   
O      0.081300000000     0.622233333333     0.469666666667   
O      0.010333333333     0.343666666667     0.500000000000   
O      0.164266666667     0.644866666667     0.504200000000   
Si     0.024866666667     0.634800000000     0.466000000000   
Si     0.137700000000     0.629300000000     0.459066666667   
O      0.245933333333     0.493066666667     0.558800000000   
O      0.180000000000     0.513333333333     0.500000000000   
O      0.211100000000     0.581300000000     0.553000000000   
O      0.156333333333     0.510333333333     0.583333333333   
O      0.188466666667     0.664266666667     0.587533333333   
Si     0.198533333333     0.524866666667     0.549333333333   
Si     0.204033333333     0.637700000000     0.542400000000   
O      0.006933333333     0.412600000000     0.642133333333   
O      0.320000000000     0.346666666667     0.583333333333   
O      0.252033333333     0.377766666667     0.636333333333   
O      0.323000000000     0.656333333333     0.333333333333   
O      0.169066666667     0.355133333333     0.337533333333   
Si     0.308466666667     0.365200000000     0.632666666667   
Si     0.195633333333     0.370700000000     0.625733333333   
O      0.254066666667     0.659733333333     0.524533333333   
O      0.288900000000     0.414633333333     0.530333333333   
O      0.311533333333     0.497600000000     0.495800000000   
Si     0.301466666667     0.358200000000     0.534000000000   
Si     0.295966666667     0.471033333333     0.540933333333   
O      0.173600000000     0.420733333333     0.607866666667   
O      0.085366666667     0.455566666667     0.613666666667   
O      0.002400000000     0.478200000000     0.579133333333   
Si     0.141800000000     0.468133333333     0.617333333333   
Si     0.028966666667     0.462633333333     0.624266666667   
O      0.079266666667     0.340266666667     0.357866666667   
O      0.044433333333     0.585366666667     0.363666666667   
O      0.021800000000     0.502400000000     0.662466666667   
Si     0.031866666667     0.641800000000     0.367333333333   
Si     0.037366666667     0.528966666667     0.374266666667   
O      0.159733333333     0.579266666667     0.441200000000   
O      0.247966666667     0.544433333333     0.447000000000   
O      0.330933333333     0.521800000000     0.412466666667   
Si     0.191533333333     0.531866666667     0.450666666667   
Si     0.304366666667     0.537366666667     0.457600000000   
O      0.087400000000     0.506933333333     0.725466666667   
O      0.153333333333     0.486666666667     0.666666666667   
O      0.122233333333     0.418700000000     0.719666666667   
O      0.177000000000     0.489666666667     0.750000000000   
O      0.144866666667     0.335733333333     0.754200000000   
Si     0.134800000000     0.475133333333     0.716000000000   
Si     0.129300000000     0.362300000000     0.709066666667   
O      0.326400000000     0.587400000000     0.808800000000   
O      0.013333333333     0.653333333333     0.750000000000   
O      0.081300000000     0.622233333333     0.803000000000   
O      0.010333333333     0.343666666667     0.833333333333   
O      0.164266666667     0.644866666667     0.837533333333   
Si     0.024866666667     0.634800000000     0.799333333333   
Si     0.137700000000     0.629300000000     0.792400000000   
O      0.245933333333     0.493066666667     0.892133333333   
O      0.180000000000     0.513333333333     0.833333333333   
O      0.211100000000     0.581300000000     0.886333333333   
O      0.156333333333     0.510333333333     0.916666666667   
O      0.188466666667     0.664266666667     0.920866666667   
Si     0.198533333333     0.524866666667     0.882666666667   
Si     0.204033333333     0.637700000000     0.875733333333   
O      0.006933333333     0.412600000000     0.975466666667   
O      0.320000000000     0.346666666667     0.916666666667   
O      0.252033333333     0.377766666667     0.969666666667   
O      0.323000000000     0.656333333333     0.666666666667   
O      0.169066666667     0.355133333333     0.670866666667   
Si     0.308466666667     0.365200000000     0.966000000000   
Si     0.195633333333     0.370700000000     0.959066666667   
O      0.254066666667     0.659733333333     0.857866666667   
O      0.288900000000     0.414633333333     0.863666666667   
O      0.311533333333     0.497600000000     0.829133333333   
Si     0.301466666667     0.358200000000     0.867333333333   
Si     0.295966666667     0.471033333333     0.874266666667   
O      0.173600000000     0.420733333333     0.941200000000   
O      0.085366666667     0.455566666667     0.947000000000   
O      0.002400000000     0.478200000000     0.912466666667   
Si     0.141800000000     0.468133333333     0.950666666667   
Si     0.028966666667     0.462633333333     0.957600000000   
O      0.079266666667     0.340266666667     0.691200000000   
O      0.044433333333     0.585366666667     0.697000000000   
O      0.021800000000     0.502400000000     0.995800000000   
Si     0.031866666667     0.641800000000     0.700666666667   
Si     0.037366666667     0.528966666667     0.707600000000   
O      0.159733333333     0.579266666667     0.774533333333   
O      0.247966666667     0.544433333333     0.780333333333   
O      0.330933333333     0.521800000000     0.745800000000   
Si     0.191533333333     0.531866666667     0.784000000000   
Si     0.304366666667     0.537366666667     0.790933333333   
O      0.087400000000     0.840266666667     0.058800000000   
O      0.153333333333     0.820000000000     0.000000000000   
O      0.122233333333     0.752033333333     0.053000000000   
O      0.177000000000     0.823000000000     0.083333333333   
O      0.144866666667     0.669066666667     0.087533333333   
Si     0.134800000000     0.808466666667     0.049333333333   
Si     0.129300000000     0.695633333333     0.042400000000   
O      0.326400000000     0.920733333333     0.142133333333   
O      0.013333333333     0.986666666667     0.083333333333   
O      0.081300000000     0.955566666667     0.136333333333   
O      0.010333333333     0.677000000000     0.166666666667   
O      0.164266666667     0.978200000000     0.170866666667   
Si     0.024866666667     0.968133333333     0.132666666667   
Si     0.137700000000     0.962633333333     0.125733333333   
O      0.245933333333     0.826400000000     0.225466666667   
O      0.180000000000     0.846666666667     0.166666666667   
O      0.211100000000     0.914633333333     0.219666666667   
O      0.156333333333     0.843666666667     0.250000000000   
O      0.188466666667     0.997600000000     0.254200000000   
Si     0.198533333333     0.858200000000     0.216000000000   
Si     0.204033333333     0.971033333333     0.209066666667   
O      0.006933333333     0.745933333333     0.308800000000   
O      0.320000000000     0.680000000000     0.250000000000   
O      0.252033333333     0.711100000000     0.303000000000   
O      0.323000000000     0.989666666667     0.000000000000   
O      0.169066666667     0.688466666667     0.004200000000   
Si     0.308466666667     0.698533333333     0.299333333333   
Si     0.195633333333     0.704033333333     0.292400000000   
O      0.254066666667     0.993066666667     0.191200000000   
O      0.288900000000     0.747966666667     0.197000000000   
O      0.311533333333     0.830933333333     0.162466666667   
Si     0.301466666667     0.691533333333     0.200666666667   
Si     0.295966666667     0.804366666667     0.207600000000   
O      0.173600000000     0.754066666667     0.274533333333   
O      0.085366666667     0.788900000000     0.280333333333   
O      0.002400000000     0.811533333333     0.245800000000   
Si     0.141800000000     0.801466666667     0.284000000000   
Si     0.028966666667     0.795966666667     0.290933333333   
O      0.079266666667     0.673600000000     0.024533333333   
O      0.044433333333     0.918700000000     0.030333333333   
O      0.021800000000     0.835733333333     0.329133333333   
Si     0.031866666667     0.975133333333     0.034000000000   
Si     0.037366666667     0.862300000000     0.040933333333   
O      0.159733333333     0.912600000000     0.107866666667   
O      0.247966666667     0.877766666667     0.113666666667   
O      0.330933333333     0.855133333333     0.079133333333   
Si     0.191533333333     0.865200000000     0.117333333333   
Si     0.304366666667     0.870700000000     0.124266666667   
O      0.087400000000     0.840266666667     0.392133333333   
O      0.153333333333     0.820000000000     0.333333333333   
O      0.122233333333     0.752033333333     0.386333333333   
O      0.177000000000     0.823000000000     0.416666666667   
O      0.144866666667     0.669066666667     0.420866666667   
Si     0.134800000000     0.808466666667     0.382666666667   
Si     0.129300000000     0.695633333333     0.375733333333   
O      0.326400000000     0.920733333333     0.475466666667   
O      0.013333333333     0.986666666667     0.416666666667   
O      0.081300000000     0.955566666667     0.469666666667   
O      0.010333333333     0.677000000000     0.500000000000   
O      0.164266666667     0.978200000000     0.504200000000   
Si     0.024866666667     0.968133333333     0.466000000000   
Si     0.137700000000     0.962633333333     0.459066666667   
O      0.245933333333     0.826400000000     0.558800000000   
O      0.180000000000     0.846666666667     0.500000000000   
O      0.211100000000     0.914633333333     0.553000000000   
O      0.156333333333     0.843666666667     0.583333333333   
O      0.188466666667     0.997600000000     0.587533333333   
Si     0.198533333333     0.858200000000     0.549333333333   
Si     0.204033333333     0.971033333333     0.542400000000   
O      0.006933333333     0.745933333333     0.642133333333   
O      0.320000000000     0.680000000000     0.583333333333   
O      0.252033333333     0.711100000000     0.636333333333   
O      0.323000000000     0.989666666667     0.333333333333   
O      0.169066666667     0.688466666667     0.337533333333   
Si     0.308466666667     0.698533333333     0.632666666667   
Si     0.195633333333     0.704033333333     0.625733333333   
O      0.254066666667     0.993066666667     0.524533333333   
O      0.288900000000     0.747966666667     0.530333333333   
O      0.311533333333     0.830933333333     0.495800000000   
Si     0.301466666667     0.691533333333     0.534000000000   
Si     0.295966666667     0.804366666667     0.540933333333   
O      0.173600000000     0.754066666667     0.607866666667   
O      0.085366666667     0.788900000000     0.613666666667   
O      0.002400000000     0.811533333333     0.579133333333   
Si     0.141800000000     0.801466666667     0.617333333333   
Si     0.028966666667     0.795966666667     0.624266666667   
O      0.079266666667     0.673600000000     0.357866666667   
O      0.044433333333     0.918700000000     0.363666666667   
O      0.021800000000     0.835733333333     0.662466666667   
Si     0.031866666667     0.975133333333     0.367333333333   
Si     0.037366666667     0.862300000000     0.374266666667   
O      0.159733333333     0.912600000000     0.441200000000   
O      0.247966666667     0.877766666667     0.447000000000   
O      0.330933333333     0.855133333333     0.412466666667   
Si     0.191533333333     0.865200000000     0.450666666667   
Si     0.304366666667     0.870700000000     0.457600000000   
O      0.087400000000     0.840266666667     0.725466666667   
O      0.153333333333     0.820000000000     0.666666666667   
O      0.122233333333     0.752033333333     0.719666666667   
O      0.177000000000     0.823000000000     0.750000000000   
O      0.144866666667     0.669066666667     0.754200000000   
Si     0.134800000000     0.808466666667     0.716000000000   
Si     0.129300000000     0.695633333333     0.709066666667   
O      0.326400000000     0.920733333333     0.808800000000   
O      0.013333333333     0.986666666667     0.750000000000   
O      0.081300000000     0.955566666667     0.803000000000   
O      0.010333333333     0.677000000000     0.833333333333   
O      0.164266666667     0.978200000000     0.837533333333   
Si     0.024866666667     0.968133333333     0.799333333333   
Si     0.137700000000     0.962633333333     0.792400000000   
O      0.245933333333     0.826400000000     0.892133333333   
O      0.180000000000     0.846666666667     0.833333333333   
O      0.211100000000     0.914633333333     0.886333333333   
O      0.156333333333     0.843666666667     0.916666666667   
O      0.188466666667     0.997600000000     0.920866666667   
Si     0.198533333333     0.858200000000     0.882666666667   
Si     0.204033333333     0.971033333333     0.875733333333   
O      0.006933333333     0.745933333333     0.975466666667   
O      0.320000000000     0.680000000000     0.916666666667   
O      0.252033333333     0.711100000000     0.969666666667   
O      0.323000000000     0.989666666667     0.666666666667   
O      0.169066666667     0.688466666667     0.670866666667   
Si     0.308466666667     0.698533333333     0.966000000000   
Si     0.195633333333     0.704033333333     0.959066666667   
O      0.254066666667     0.993066666667     0.857866666667   
O      0.288900000000     0.747966666667     0.863666666667   
O      0.311533333333     0.830933333333     0.829133333333   
Si     0.301466666667     0.691533333333     0.867333333333   
Si     0.295966666667     0.804366666667     0.874266666667   
O      0.173600000000     0.754066666667     0.941200000000   
O      0.085366666667     0.788900000000     0.947000000000   
O      0.002400000000     0.811533333333     0.912466666667   
Si     0.141800000000     0.801466666667     0.950666666667   
Si     0.028966666667     0.795966666667     0.957600000000   
O      0.079266666667     0.673600000000     0.691200000000   
O      0.044433333333     0.918700000000     0.697000000000   
O      0.021800000000     0.835733333333     0.995800000000   
Si     0.031866666667     0.975133333333     0.700666666667   
Si     0.037366666667     0.862300000000     0.707600000000   
O      0.159733333333     0.912600000000     0.774533333333   
O      0.247966666667     0.877766666667     0.780333333333   
O      0.330933333333     0.855133333333     0.745800000000   
Si     0.191533333333     0.865200000000     0.784000000000   
Si     0.304366666667     0.870700000000     0.790933333333   
O      0.420733333333     0.173600000000     0.058800000000   
O      0.486666666667     0.153333333333     0.000000000000   
O      0.455566666667     0.085366666667     0.053000000000   
O      0.510333333333     0.156333333333     0.083333333333   
O      0.478200000000     0.002400000000     0.087533333333   
Si     0.468133333333     0.141800000000     0.049333333333   
Si     0.462633333333     0.028966666667     0.042400000000   
O      0.659733333333     0.254066666667     0.142133333333   
O      0.346666666667     0.320000000000     0.083333333333   
O      0.414633333333     0.288900000000     0.136333333333   
O      0.343666666667     0.010333333333     0.166666666667   
O      0.497600000000     0.311533333333     0.170866666667   
Si     0.358200000000     0.301466666667     0.132666666667   
Si     0.471033333333     0.295966666667     0.125733333333   
O      0.579266666667     0.159733333333     0.225466666667   
O      0.513333333333     0.180000000000     0.166666666667   
O      0.544433333333     0.247966666667     0.219666666667   
O      0.489666666667     0.177000000000     0.250000000000   
O      0.521800000000     0.330933333333     0.254200000000   
Si     0.531866666667     0.191533333333     0.216000000000   
Si     0.537366666667     0.304366666667     0.209066666667   
O      0.340266666667     0.079266666667     0.308800000000   
O      0.653333333333     0.013333333333     0.250000000000   
O      0.585366666667     0.044433333333     0.303000000000   
O      0.656333333333     0.323000000000     0.000000000000   
O      0.502400000000     0.021800000000     0.004200000000   
Si     0.641800000000     0.031866666667     0.299333333333   
Si     0.528966666667     0.037366666667     0.292400000000   
O      0.587400000000     0.326400000000     0.191200000000   
O      0.622233333333     0.081300000000     0.197000000000   
O      0.644866666667     0.164266666667     0.162466666667   
Si     0.634800000000     0.024866666667     0.200666666667   
Si     0.629300000000     0.137700000000     0.207600000000   
O      0.506933333333     0.087400000000     0.274533333333   
O      0.418700000000     0.122233333333     0.280333333333   
O      0.335733333333     0.144866666667     0.245800000000   
Si     0.475133333333     0.134800000000     0.284000000000   
Si     0.362300000000     0.129300000000     0.290933333333   
O      0.412600000000     0.006933333333     0.024533333333   
O      0.377766666667     0.252033333333     0.030333333333   