%BLOCK LATTICE_CART
ang    # angstrom units
  10.101000000000    0.000000000000     0.000000000000   
 -5.050500000000     8.747722603627     0.000000000000   
  0.000000000000     0.000000000000     7.647000000000   
%ENDBLOCK LATTICE_CART

%BLOCK POSITIONS_FRAC
O      0.105700000000     0.227633333333     0.208325000000   
O      0.154766666667     0.119000000000     0.177375000000   
Si     0.095500000000     0.191033333333     0.000000000000   
Si     0.000000000000     0.166666666667     0.041675000000   
O      0.211400000000     0.105700000000     0.041658333333   
O      0.035766666667     0.154766666667     0.010708333333   
Si     0.237800000000     0.095500000000     0.083333333333   
Si     0.166666666667     0.000000000000     0.125008333333   
O      0.105700000000     0.211400000000     0.124991666667   
O      0.214333333333     0.035766666667     0.094041666667   
Si     0.142300000000     0.237800000000     0.166666666667   
Si     0.166666666667     0.166666666667     0.208341666667   
O      0.227633333333     0.105700000000     0.208325000000   
O      0.178566666667     0.214333333333     0.177375000000   
Si     0.237833333333     0.142300000000     0.000000000000   
O      0.121933333333     0.227633333333     0.041658333333   
O      0.297566666667     0.178566666667     0.010708333333   
Si     0.095533333333     0.237833333333     0.083333333333   
O      0.227633333333     0.121933333333     0.124991666667   
O      0.119000000000     0.297566666667     0.094041666667   
Si     0.191033333333     0.095533333333     0.166666666667   
O      0.214333333333     0.178566666667     0.239291666667   
O      0.035766666667     0.214333333333     0.072625000000   
O      0.154766666667     0.035766666667     0.155958333333   
O      0.119000000000     0.154766666667     0.239291666667   
O      0.297566666667     0.119000000000     0.072625000000   
O      0.178566666667     0.297566666667     0.155958333333   
O      0.105700000000     0.227633333333     0.458325000000   
O      0.154766666667     0.119000000000     0.427375000000   
Si     0.095500000000     0.191033333333     0.250000000000   
Si     0.000000000000     0.166666666667     0.291675000000   
O      0.211400000000     0.105700000000     0.291658333333   
O      0.035766666667     0.154766666667     0.260708333333   
Si     0.237800000000     0.095500000000     0.333333333333   
Si     0.166666666667     0.000000000000     0.375008333333   
O      0.105700000000     0.211400000000     0.374991666667   
O      0.214333333333     0.035766666667     0.344041666667   
Si     0.142300000000     0.237800000000     0.416666666667   
Si     0.166666666667     0.166666666667     0.458341666667   
O      0.227633333333     0.105700000000     0.458325000000   
O      0.178566666667     0.214333333333     0.427375000000   
Si     0.237833333333     0.142300000000     0.250000000000   
O      0.121933333333     0.227633333333     0.291658333333   
O      0.297566666667     0.178566666667     0.260708333333   
Si     0.095533333333     0.237833333333     0.333333333333   
O      0.227633333333     0.121933333333     0.374991666667   
O      0.119000000000     0.297566666667     0.344041666667   
Si     0.191033333333     0.095533333333     0.416666666667   
O      0.214333333333     0.178566666667     0.489291666667   
O      0.035766666667     0.214333333333     0.322625000000   
O      0.154766666667     0.035766666667     0.405958333333   
O      0.119000000000     0.154766666667     0.489291666667   
O      0.297566666667     0.119000000000     0.322625000000   
O      0.178566666667     0.297566666667     0.405958333333   
O      0.105700000000     0.227633333333     0.708325000000   
O      0.154766666667     0.119000000000     0.677375000000   
Si     0.095500000000     0.191033333333     0.500000000000   
Si     0.000000000000     0.166666666667     0.541675000000   
O      0.211400000000     0.105700000000     0.541658333333   
O      0.035766666667     0.154766666667     0.510708333333   
Si     0.237800000000     0.095500000000     0.583333333333   
Si     0.166666666667     0.000000000000     0.625008333333   
O      0.105700000000     0.211400000000     0.624991666667   
O      0.214333333333     0.035766666667     0.594041666667   
Si     0.142300000000     0.237800000000     0.666666666667   
Si     0.166666666667     0.166666666667     0.708341666667   
O      0.227633333333     0.105700000000     0.708325000000   
O      0.178566666667     0.214333333333     0.677375000000   
Si     0.237833333333     0.142300000000     0.500000000000   
O      0.121933333333     0.227633333333     0.541658333333   
O      0.297566666667     0.178566666667     0.510708333333   
Si     0.095533333333     0.237833333333     0.583333333333   
O      0.227633333333     0.121933333333     0.624991666667   
O      0.119000000000     0.297566666667     0.594041666667   
Si     0.191033333333     0.095533333333     0.666666666667   
O      0.214333333333     0.178566666667     0.739291666667   
O      0.035766666667     0.214333333333     0.572625000000   
O      0.154766666667     0.035766666667     0.655958333333   
O      0.119000000000     0.154766666667     0.739291666667   
O      0.297566666667     0.119000000000     0.572625000000   
O      0.178566666667     0.297566666667     0.655958333333   
O      0.105700000000     0.227633333333     0.958325000000   
O      0.154766666667     0.119000000000     0.927375000000   
Si     0.095500000000     0.191033333333     0.750000000000   
Si     0.000000000000     0.166666666667     0.791675000000   
O      0.211400000000     0.105700000000     0.791658333333   
O      0.035766666667     0.154766666667     0.760708333333   
Si     0.237800000000     0.095500000000     0.833333333333   
Si     0.166666666667     0.000000000000     0.875008333333   
O      0.105700000000     0.211400000000     0.874991666667   
O      0.214333333333     0.035766666667     0.844041666667   
Si     0.142300000000     0.237800000000     0.916666666667   
Si     0.166666666667     0.166666666667     0.958341666667   
O      0.227633333333     0.105700000000     0.958325000000   
O      0.178566666667     0.214333333333     0.927375000000   
Si     0.237833333333     0.142300000000     0.750000000000   
O      0.121933333333     0.227633333333     0.791658333333   
O      0.297566666667     0.178566666667     0.760708333333   
Si     0.095533333333     0.237833333333     0.833333333333   
O      0.227633333333     0.121933333333     0.874991666667   
O      0.119000000000     0.297566666667     0.844041666667   
Si     0.191033333333     0.095533333333     0.916666666667   
O      0.214333333333     0.178566666667     0.989291666667   
O      0.035766666667     0.214333333333     0.822625000000   
O      0.154766666667     0.035766666667     0.905958333333   
O      0.119000000000     0.154766666667     0.989291666667   
O      0.297566666667     0.119000000000     0.822625000000   
O      0.178566666667     0.297566666667     0.905958333333   
O      0.105700000000     0.560966666667     0.208325000000   
O      0.154766666667     0.452333333333     0.177375000000   
Si     0.095500000000     0.524366666667     0.000000000000   
Si     0.000000000000     0.500000000000     0.041675000000   
O      0.211400000000     0.439033333333     0.041658333333   
O      0.035766666667     0.488100000000     0.010708333333   
Si     0.237800000000     0.428833333333     0.083333333333   
Si     0.166666666667     0.333333333333     0.125008333333   
O      0.105700000000     0.544733333333     0.124991666667   
O      0.214333333333     0.369100000000     0.094041666667   
Si     0.142300000000     0.571133333333     0.166666666667   
Si     0.166666666667     0.500000000000     0.208341666667   
O      0.227633333333     0.439033333333     0.208325000000   
O      0.178566666667     0.547666666667     0.177375000000   
Si     0.237833333333     0.475633333333     0.000000000000   
O      0.121933333333     0.560966666667     0.041658333333   
O      0.297566666667     0.511900000000     0.010708333333   
Si     0.095533333333     0.571166666667     0.083333333333   
O      0.227633333333     0.455266666667     0.124991666667   
O      0.119000000000     0.630900000000     0.094041666667   
Si     0.191033333333     0.428866666667     0.166666666667   
O      0.214333333333     0.511900000000     0.239291666667   
O      0.035766666667     0.547666666667     0.072625000000   
O      0.154766666667     0.369100000000     0.155958333333   
O      0.119000000000     0.488100000000     0.239291666667   
O      0.297566666667     0.452333333333     0.072625000000   
O      0.178566666667     0.630900000000     0.155958333333   
O      0.105700000000     0.560966666667     0.458325000000   
O      0.154766666667     0.452333333333     0.427375000000   
Si     0.095500000000     0.524366666667     0.250000000000   
Si     0.000000000000     0.500000000000     0.291675000000   
O      0.211400000000     0.439033333333     0.291658333333   
O      0.035766666667     0.488100000000     0.260708333333   
Si     0.237800000000     0.428833333333     0.333333333333   
Si     0.166666666667     0.333333333333     0.375008333333   
O      0.105700000000     0.544733333333     0.374991666667   
O      0.214333333333     0.369100000000     0.344041666667   
Si     0.142300000000     0.571133333333     0.416666666667   
Si     0.166666666667     0.500000000000     0.458341666667   
O      0.227633333333     0.439033333333     0.458325000000   
O      0.178566666667     0.547666666667     0.427375000000   
Si     0.237833333333     0.475633333333     0.250000000000   
O      0.121933333333     0.560966666667     0.291658333333   
O      0.297566666667     0.511900000000     0.260708333333   
Si     0.095533333333     0.571166666667     0.333333333333   
O      0.227633333333     0.455266666667     0.374991666667   
O      0.119000000000     0.630900000000     0.344041666667   
Si     0.191033333333     0.428866666667     0.416666666667   
O      0.214333333333     0.511900000000     0.489291666667   
O      0.035766666667     0.547666666667     0.322625000000   
O      0.154766666667     0.369100000000     0.405958333333   
O      0.119000000000     0.488100000000     0.489291666667   
O      0.297566666667     0.452333333333     0.322625000000   
O      0.178566666667     0.630900000000     0.405958333333   
O      0.105700000000     0.560966666667     0.708325000000   
O      0.154766666667     0.452333333333     0.677375000000   
Si     0.095500000000     0.524366666667     0.500000000000   
Si     0.000000000000     0.500000000000     0.541675000000   
O      0.211400000000     0.439033333333     0.541658333333   
O      0.035766666667     0.488100000000     0.510708333333   
Si     0.237800000000     0.428833333333     0.583333333333   
Si     0.166666666667     0.333333333333     0.625008333333   
O      0.105700000000     0.544733333333     0.624991666667   
O      0.214333333333     0.369100000000     0.594041666667   
Si     0.142300000000     0.571133333333     0.666666666667   
Si     0.166666666667     0.500000000000     0.708341666667   
O      0.227633333333     0.439033333333     0.708325000000   
O      0.178566666667     0.547666666667     0.677375000000   
Si     0.237833333333     0.475633333333     0.500000000000   
O      0.121933333333     0.560966666667     0.541658333333   
O      0.297566666667     0.511900000000     0.510708333333   
Si     0.095533333333     0.571166666667     0.583333333333   
O      0.227633333333     0.455266666667     0.624991666667   
O      0.119000000000     0.630900000000     0.594041666667   
Si     0.191033333333     0.428866666667     0.666666666667   
O      0.214333333333     0.511900000000     0.739291666667   
O      0.035766666667     0.547666666667     0.572625000000   
O      0.154766666667     0.369100000000     0.655958333333   
O      0.119000000000     0.488100000000     0.739291666667   
O      0.297566666667     0.452333333333     0.572625000000   
O      0.178566666667     0.630900000000     0.655958333333   
O      0.105700000000     0.560966666667     0.958325000000   
O      0.154766666667     0.452333333333     0.927375000000   
Si     0.095500000000     0.524366666667     0.750000000000   
Si     0.000000000000     0.500000000000     0.791675000000   
O      0.211400000000     0.439033333333     0.791658333333   
O      0.035766666667     0.488100000000     0.760708333333   
Si     0.237800000000     0.428833333333     0.833333333333   
Si     0.166666666667     0.333333333333     0.875008333333   
O      0.105700000000     0.544733333333     0.874991666667   
O      0.214333333333     0.369100000000     0.844041666667   
Si     0.142300000000     0.571133333333     0.916666666667   
Si     0.166666666667     0.500000000000     0.958341666667   
O      0.227633333333     0.439033333333     0.958325000000   
O      0.178566666667     0.547666666667     0.927375000000   
Si     0.237833333333     0.475633333333     0.750000000000   
O      0.121933333333     0.560966666667     0.791658333333   
O      0.297566666667     0.511900000000     0.760708333333   
Si     0.095533333333     0.571166666667     0.833333333333   
O      0.227633333333     0.455266666667     0.874991666667   
O      0.119000000000     0.630900000000     0.844041666667   
Si     0.191033333333     0.428866666667     0.916666666667   
O      0.214333333333     0.511900000000     0.989291666667   
O      0.035766666667     0.547666666667     0.822625000000   
O      0.154766666667     0.369100000000     0.905958333333   
O      0.119000000000     0.488100000000     0.989291666667   
O      0.297566666667     0.452333333333     0.822625000000   
O      0.178566666667     0.630900000000     0.905958333333   
O      0.105700000000     0.894300000000     0.208325000000   
O      0.154766666667     0.785666666667     0.177375000000   
Si     0.095500000000     0.857700000000     0.000000000000   
Si     0.000000000000     0.833333333333     0.041675000000   
O      0.211400000000     0.772366666667     0.041658333333   
O      0.035766666667     0.821433333333     0.010708333333   
Si     0.237800000000     0.762166666667     0.083333333333   
Si     0.166666666667     0.666666666667     0.125008333333   
O      0.105700000000     0.878066666667     0.124991666667   
O      0.214333333333     0.702433333333     0.094041666667   
Si     0.142300000000     0.904466666667     0.166666666667   
Si     0.166666666667     0.833333333333     0.208341666667   
O      0.227633333333     0.772366666667     0.208325000000   
O      0.178566666667     0.881000000000     0.177375000000   
Si     0.237833333333     0.808966666667     0.000000000000   
O      0.121933333333     0.894300000000     0.041658333333   
O      0.297566666667     0.845233333333     0.010708333333   
Si     0.095533333333     0.904500000000     0.083333333333   
O      0.227633333333     0.788600000000     0.124991666667   
O      0.119000000000     0.964233333333     0.094041666667   
Si     0.191033333333     0.762200000000     0.166666666667   
O      0.214333333333     0.845233333333     0.239291666667   
O      0.035766666667     0.881000000000     0.072625000000   
O      0.154766666667     0.702433333333     0.155958333333   
O      0.119000000000     0.821433333333     0.239291666667   
O      0.297566666667     0.785666666667     0.072625000000   
O      0.178566666667     0.964233333333     0.155958333333   
O      0.105700000000     0.894300000000     0.458325000000   
O      0.154766666667     0.785666666667     0.427375000000   
Si     0.095500000000     0.857700000000     0.250000000000   
Si     0.000000000000     0.833333333333     0.291675000000   
O      0.211400000000     0.772366666667     0.291658333333   
O      0.035766666667     0.821433333333     0.260708333333   
Si     0.237800000000     0.762166666667     0.333333333333   
Si     0.166666666667     0.666666666667     0.375008333333   
O      0.105700000000     0.878066666667     0.374991666667   
O      0.214333333333     0.702433333333     0.344041666667   
Si     0.142300000000     0.904466666667     0.416666666667   
Si     0.166666666667     0.833333333333     0.458341666667   
O      0.227633333333     0.772366666667     0.458325000000   
O      0.178566666667     0.881000000000     0.427375000000   
Si     0.237833333333     0.808966666667     0.250000000000   
O      0.121933333333     0.894300000000     0.291658333333   
O      0.297566666667     0.845233333333     0.260708333333   
Si     0.095533333333     0.904500000000     0.333333333333   
O      0.227633333333     0.788600000000     0.374991666667   
O      0.119000000000     0.964233333333     0.344041666667   
Si     0.191033333333     0.762200000000     0.416666666667   
O      0.214333333333     0.845233333333     0.489291666667   
O      0.035766666667     0.881000000000     0.322625000000   
O      0.154766666667     0.702433333333     0.405958333333   
O      0.119000000000     0.821433333333     0.489291666667   
O      0.297566666667     0.785666666667     0.322625000000   
O      0.178566666667     0.964233333333     0.405958333333   
O      0.105700000000     0.894300000000     0.708325000000   
O      0.154766666667     0.785666666667     0.677375000000   
Si     0.095500000000     0.857700000000     0.500000000000   
Si     0.000000000000     0.833333333333     0.541675000000   
O      0.211400000000     0.772366666667     0.541658333333   
O      0.035766666667     0.821433333333     0.510708333333   
Si     0.237800000000     0.762166666667     0.583333333333   
Si     0.166666666667     0.666666666667     0.625008333333   
O      0.105700000000     0.878066666667     0.624991666667   
O      0.214333333333     0.702433333333     0.594041666667   
Si     0.142300000000     0.904466666667     0.666666666667   
Si     0.166666666667     0.833333333333     0.708341666667   
O      0.227633333333     0.772366666667     0.708325000000   
O      0.178566666667     0.881000000000     0.677375000000   
Si     0.237833333333     0.808966666667     0.500000000000   
O      0.121933333333     0.894300000000     0.541658333333   
O      0.297566666667     0.845233333333     0.510708333333   
Si     0.095533333333     0.904500000000     0.583333333333   
O      0.227633333333     0.788600000000     0.624991666667   
O      0.119000000000     0.964233333333     0.594041666667   
Si     0.191033333333     0.762200000000     0.666666666667   
O      0.214333333333     0.845233333333     0.739291666667   
O      0.035766666667     0.881000000000     0.572625000000   
O      0.154766666667     0.702433333333     0.655958333333   
O      0.119000000000     0.821433333333     0.739291666667   
O      0.297566666667     0.785666666667     0.572625000000   
O      0.178566666667     0.964233333333     0.655958333333   
O      0.105700000000     0.894300000000     0.958325000000   
O      0.154766666667     0.785666666667     0.927375000000   
Si     0.095500000000     0.857700000000     0.750000000000   
Si     0.000000000000     0.833333333333     0.791675000000   
O      0.211400000000     0.772366666667     0.791658333333   
O      0.035766666667     0.821433333333     0.760708333333   
Si     0.237800000000     0.762166666667     0.833333333333   
Si     0.166666666667     0.666666666667     0.875008333333   
O      0.105700000000     0.878066666667     0.874991666667   
O      0.214333333333     0.702433333333     0.844041666667   
Si     0.142300000000     0.904466666667     0.916666666667   
Si     0.166666666667     0.833333333333     0.958341666667   
O      0.227633333333     0.772366666667     0.958325000000   
O      0.178566666667     0.881000000000     0.927375000000   
Si     0.237833333333     0.808966666667     0.750000000000   
O      0.121933333333     0.894300000000     0.791658333333   
O      0.297566666667     0.845233333333     0.760708333333   
Si     0.095533333333     0.904500000000     0.833333333333   
O      0.227633333333     0.788600000000     0.874991666667   
O      0.119000000000     0.964233333333     0.844041666667   
Si     0.191033333333     0.762200000000     0.916666666667   
O      0.214333333333     0.845233333333     0.989291666667   
O      0.035766666667     0.881000000000     0.822625000000   
O      0.154766666667     0.702433333333     0.905958333333   
O      0.119000000000     0.821433333333     0.989291666667   
O      0.297566666667     0.785666666667     0.822625000000   
O      0.178566666667     0.964233333333     0.905958333333   
O      0.439033333333     0.227633333333     0.208325000000   
O      0.488100000000     0.119000000000     0.177375000000   
Si     0.428833333333     0.191033333333     0.000000000000   
Si     0.333333333333     0.166666666667     0.041675000000   
O      0.544733333333     0.105700000000     0.041658333333   
O      0.369100000000     0.154766666667     0.010708333333   
Si     0.571133333333     0.095500000000     0.083333333333   
Si     0.500000000000     0.000000000000     0.125008333333   
O      0.439033333333     0.211400000000     0.124991666667   
O      0.547666666667     0.035766666667     0.094041666667   
Si     0.475633333333     0.237800000000     0.166666666667   
Si     0.500000000000     0.166666666667     0.208341666667   
O      0.560966666667     0.105700000000     0.208325000000   
O      0.511900000000     0.214333333333     0.177375000000   
Si     0.571166666667     0.142300000000     0.000000000000   
O      0.455266666667     0.227633333333     0.041658333333   
O      0.630900000000     0.178566666667     0.010708333333   
Si     0.428866666667     0.237833333333     0.083333333333   
O      0.560966666667     0.121933333333     0.124991666667   
O      0.452333333333     0.297566666667     0.094041666667   
Si     0.524366666667     0.095533333333     0.166666666667   
O      0.547666666667     0.178566666667     0.239291666667   
O      0.369100000000     0.214333333333     0.072625000000   
O      0.488100000000     0.035766666667     0.155958333333   
O      0.452333333333     0.154766666667     0.239291666667   
O      0.630900000000     0.119000000000     0.072625000000   
O      0.511900000000     0.297566666667     0.155958333333   
O      0.439033333333     0.227633333333     0.458325000000   
O      0.488100000000     0.119000000000     0.427375000000   
Si     0.428833333333     0.191033333333     0.250000000000   
Si     0.333333333333     0.166666666667     0.291675000000   
O      0.544733333333     0.105700000000     0.291658333333   
O      0.369100000000     0.154766666667     0.260708333333   
Si     0.571133333333     0.095500000000     0.333333333333   
Si     0.500000000000     0.000000000000     0.375008333333   
O      0.439033333333     0.211400000000     0.374991666667   
O      0.547666666667     0.035766666667     0.344041666667   
Si     0.475633333333     0.237800000000     0.416666666667   
Si     0.500000000000     0.166666666667     0.458341666667   
O      0.560966666667     0.105700000000     0.458325000000   
O      0.511900000000     0.214333333333     0.427375000000   
Si     0.571166666667     0.142300000000     0.250000000000   
O      0.455266666667     0.227633333333     0.291658333333   
O      0.630900000000     0.178566666667     0.260708333333   
Si     0.428866666667     0.237833333333     0.333333333333   
O      0.560966666667     0.121933333333     0.374991666667   
O      0.452333333333     0.297566666667     0.344041666667   
Si     0.524366666667     0.095533333333     0.416666666667   
O      0.547666666667     0.178566666667     0.489291666667   
O      0.369100000000     0.214333333333     0.322625000000   
O      0.488100000000     0.035766666667     0.405958333333   
O      0.452333333333     0.154766666667     0.489291666667   
O      0.630900000000     0.119000000000     0.322625000000   
O      0.511900000000     0.297566666667     0.405958333333   
O      0.439033333333     0.227633333333     0.708325000000   
O      0.488100000000     0.119000000000     0.677375000000   
Si     0.428833333333     0.191033333333     0.500000000000   
Si     0.333333333333     0.166666666667     0.541675000000   
O      0.544733333333     0.105700000000     0.541658333333   
O      0.369100000000     0.154766666667     0.510708333333   
Si     0.571133333333     0.095500000000     0.583333333333   
Si     0.500000000000     0.000000000000     0.625008333333   
O      0.439033333333     0.211400000000     0.624991666667   
O      0.547666666667     0.035766666667     0.594041666667   
Si     0.475633333333     0.237800000000     0.666666666667   
Si     0.500000000000     0.166666666667     0.708341666667   
O      0.560966666667     0.105700000000     0.708325000000   
O      0.511900000000     0.214333333333     0.677375000000   
Si     0.571166666667     0.142300000000     0.500000000000   
O      0.455266666667     0.227633333333     0.541658333333   
O      0.630900000000     0.178566666667     0.510708333333   
Si     0.428866666667     0.237833333333     0.583333333333   
O      0.560966666667     0.121933333333     0.624991666667   
O      0.452333333333     0.297566666667     0.594041666667   
Si     0.524366666667     0.095533333333     0.666666666667   
O      0.547666666667     0.178566666667     0.739291666667   
O      0.369100000000     0.214333333333     0.572625000000   
O      0.488100000000     0.035766666667     0.655958333333   
O      0.452333333333     0.154766666667     0.739291666667   
O      0.630900000000     0.119000000000     0.572625000000   
O      0.511900000000     0.297566666667     0.655958333333   
O      0.439033333333     0.227633333333     0.958325000000   
O      0.488100000000     0.119000000000     0.927375000000   
Si     0.428833333333     0.191033333333     0.750000000000   
Si     0.333333333333     0.166666666667     0.791675000000   
O      0.544733333333     0.105700000000     0.791658333333   
O      0.369100000000     0.154766666667     0.760708333333   
Si     0.571133333333     0.095500000000     0.833333333333   
Si     0.500000000000     0.000000000000     0.875008333333   
O      0.439033333333     0.211400000000     0.874991666667   
O      0.547666666667     0.035766666667     0.844041666667   
Si     0.475633333333     0.237800000000     0.916666666667   
Si     0.500000000000     0.166666666667     0.958341666667   
O      0.560966666667     0.105700000000     0.958325000000   
O      0.511900000000     0.214333333333     0.927375000000   
Si     0.571166666667     0.142300000000     0.750000000000   
O      0.455266666667     0.227633333333     0.791658333333   
O      0.630900000000     0.178566666667     0.760708333333   
Si     0.428866666667     0.237833333333     0.833333333333   
O      0.560966666667     0.121933333333     0.874991666667   
O      0.452333333333     0.297566666667     0.844041666667   
Si     0.524366666667     0.095533333333     0.916666666667   
O      0.547666666667     0.178566666667     0.989291666667   
O      0.369100000000     0.214333333333     0.822625000000   
O      0.488100000000     0.035766666667     0.905958333333   
O      0.452333333333     0.154766666667     0.989291666667   
O      0.630900000000     0.119000000000     0.822625000000   
O      0.511900000000     0.297566666667     0.905958333333   
O      0.439033333333     0.560966666667     0.208325000000   
O      0.488100000000     0.452333333333     0.177375000000   
Si     0.428833333333     0.524366666667     0.000000000000   
Si     0.333333333333     0.500000000000     0.041675000000   
O      0.544733333333     0.439033333333     0.041658333333   
O      0.369100000000     0.488100000000     0.010708333333   
Si     0.571133333333     0.428833333333     0.083333333333   
Si     0.500000000000     0.333333333333     0.125008333333   
O      0.439033333333     0.544733333333     0.124991666667   
O      0.547666666667     0.369100000000     0.094041666667   
Si     0.475633333333     0.571133333333     0.166666666667   
Si     0.500000000000     0.500000000000     0.208341666667   
O      0.560966666667     0.439033333333     0.208325000000   
O      0.511900000000     0.547666666667     0.177375000000   
Si     0.571166666667     0.475633333333     0.000000000000   
O      0.455266666667     0.560966666667     0.041658333333   
O      0.630900000000     0.511900000000     0.010708333333   
Si     0.428866666667     0.571166666667     0.083333333333   
O      0.560966666667     0.455266666667     0.124991666667   
O      0.452333333333     0.630900000000     0.094041666667   
Si     0.524366666667     0.428866666667     0.166666666667   
O      0.547666666667     0.511900000000     0.239291666667   
O      0.369100000000     0.547666666667     0.072625000000   
O      0.488100000000     0.369100000000     0.155958333333   
O      0.452333333333     0.488100000000     0.239291666667   
O      0.630900000000     0.452333333333     0.072625000000   
O      0.511900000000     0.630900000000     0.155958333333   
O      0.439033333333     0.560966666667     0.458325000000   
O      0.488100000000     0.452333333333     0.427375000000   
Si     0.428833333333     0.524366666667     0.250000000000   
Si     0.333333333333     0.500000000000     0.291675000000   
O      0.544733333333     0.439033333333     0.291658333333   
O      0.369100000000     0.488100000000     0.260708333333   
Si     0.571133333333     0.428833333333     0.333333333333   
Si     0.500000000000     0.333333333333     0.375008333333   
O      0.439033333333     0.544733333333     0.374991666667   
O      0.547666666667     0.369100000000     0.344041666667   
Si     0.475633333333     0.571133333333     0.416666666667   
Si     0.500000000000     0.500000000000     0.458341666667   
O      0.560966666667     0.439033333333     0.458325000000   