%BLOCK LATTICE_CART
ang    # angstrom units
  24.063810000000    0.000000000000     0.000000000000   
  0.000000000000     13.833220000000    0.000000000000   
 -4.047408687855     0.000000000000     11.669640331796  
%ENDBLOCK LATTICE_CART

%BLOCK POSITIONS_FRAC
Si     0.153670000000     0.397140000000     0.083906666667   
Si     0.156950000000     0.395910000000     0.170173333333   
Si     0.159590000000     0.396370000000     0.288330000000   
Si     0.181395000000     0.345685000000     0.031180000000   
Si     0.193860000000     0.345640000000     0.244336666667   
Si     0.495260000000     0.443055000000     0.040550000000   
Si     0.133825000000     0.000000000000     0.260043333333   
Si     0.105770000000     0.250000000000     0.275506666667   
Si     0.155525000000     0.250000000000     0.237496666667   
Si     0.109730000000     0.250000000000     0.152696666667   
Si     0.147310000000     0.250000000000     0.018900000000   
O      0.161930000000     0.451500000000     0.075413333333   
O      0.172875000000     0.359865000000     0.068376666667   
O      0.161935000000     0.390855000000     0.129430000000   
O      0.119105000000     0.386450000000     0.063963333333   
O      0.159590000000     0.451930000000     0.182810000000   
O      0.125000000000     0.375000000000     0.166666666667   
O      0.182500000000     0.366015000000     0.201306666667   
O      0.171480000000     0.389065000000     0.000643333333   
O      0.152260000000     0.452585000000     0.278740000000   
O      0.186195000000     0.383735000000     0.272526666667   
O      0.163950000000     0.297640000000     0.011816666667   
O      0.175990000000     0.297280000000     0.246583333333   
O      0.104410000000     0.000000000000     0.271756666667   
O      0.126070000000     0.000000000000     0.214396666667   
O      0.114660000000     0.250000000000     0.321393333333   
O      0.135610000000     0.250000000000     0.264846666667   
O      0.135760000000     0.250000000000     0.193156666667   
O      0.021795000000     0.418270000000     0.074003333333   
O      0.465885000000     0.415695000000     0.041233333333   
O      0.000000000000     0.065355000000     0.000000000000   
O      0.493440000000     0.000000000000     0.048416666667   
Si     0.346330000000     0.397140000000     0.249426666667   
Si     0.343050000000     0.395910000000     0.163160000000   
Si     0.340410000000     0.396370000000     0.045003333333   
Si     0.318605000000     0.345685000000     0.302153333333   
Si     0.306140000000     0.345640000000     0.088996666667   
Si     0.004740000000     0.443055000000     0.292783333333   
Si     0.366175000000     0.000000000000     0.073290000000   
Si     0.394230000000     0.250000000000     0.057826666667   
Si     0.344475000000     0.250000000000     0.095836666667   
Si     0.390270000000     0.250000000000     0.180636666667   
Si     0.352690000000     0.250000000000     0.314433333333   
O      0.338070000000     0.451500000000     0.257920000000   
O      0.327125000000     0.359865000000     0.264956666667   
O      0.338065000000     0.390855000000     0.203903333333   
O      0.380895000000     0.386450000000     0.269370000000   
O      0.340410000000     0.451930000000     0.150523333333   
O      0.375000000000     0.375000000000     0.166666666667   
O      0.317500000000     0.366015000000     0.132026666667   
O      0.328520000000     0.389065000000     0.332690000000   
O      0.347740000000     0.452585000000     0.054593333333   
O      0.313805000000     0.383735000000     0.060806666667   
O      0.336050000000     0.297640000000     0.321516666667   
O      0.324010000000     0.297280000000     0.086750000000   
O      0.395590000000     0.000000000000     0.061576666667   
O      0.373930000000     0.000000000000     0.118936666667   
O      0.385340000000     0.250000000000     0.011940000000   
O      0.364390000000     0.250000000000     0.068486666667   
O      0.364240000000     0.250000000000     0.140176666667   
O      0.478205000000     0.418270000000     0.259330000000   
O      0.034115000000     0.415695000000     0.292100000000   
O      0.006560000000     0.000000000000     0.284916666667   
Si     0.346330000000     0.102860000000     0.249426666667   
Si     0.343050000000     0.104090000000     0.163160000000   
Si     0.340410000000     0.103630000000     0.045003333333   
Si     0.318605000000     0.154315000000     0.302153333333   
Si     0.306140000000     0.154360000000     0.088996666667   
Si     0.004740000000     0.056945000000     0.292783333333   
O      0.338070000000     0.048500000000     0.257920000000   
O      0.327125000000     0.140135000000     0.264956666667   
O      0.338065000000     0.109145000000     0.203903333333   
O      0.380895000000     0.113550000000     0.269370000000   
O      0.340410000000     0.048070000000     0.150523333333   
O      0.375000000000     0.125000000000     0.166666666667   
O      0.317500000000     0.133985000000     0.132026666667   
O      0.328520000000     0.110935000000     0.332690000000   
O      0.347740000000     0.047415000000     0.054593333333   
O      0.313805000000     0.116265000000     0.060806666667   
O      0.336050000000     0.202360000000     0.321516666667   
O      0.324010000000     0.202720000000     0.086750000000   
O      0.478205000000     0.081730000000     0.259330000000   
O      0.034115000000     0.084305000000     0.292100000000   
O      0.000000000000     0.434645000000     0.000000000000   
Si     0.153670000000     0.102860000000     0.083906666667   
Si     0.156950000000     0.104090000000     0.170173333333   
Si     0.159590000000     0.103630000000     0.288330000000   
Si     0.181395000000     0.154315000000     0.031180000000   
Si     0.193860000000     0.154360000000     0.244336666667   
Si     0.495260000000     0.056945000000     0.040550000000   
O      0.161930000000     0.048500000000     0.075413333333   
O      0.172875000000     0.140135000000     0.068376666667   
O      0.161935000000     0.109145000000     0.129430000000   
O      0.119105000000     0.113550000000     0.063963333333   
O      0.159590000000     0.048070000000     0.182810000000   
O      0.125000000000     0.125000000000     0.166666666667   
O      0.182500000000     0.133985000000     0.201306666667   
O      0.171480000000     0.110935000000     0.000643333333   
O      0.152260000000     0.047415000000     0.278740000000   
O      0.186195000000     0.116265000000     0.272526666667   
O      0.163950000000     0.202360000000     0.011816666667   
O      0.175990000000     0.202720000000     0.246583333333   
O      0.021795000000     0.081730000000     0.074003333333   
O      0.465885000000     0.084305000000     0.041233333333   
Si     0.403670000000     0.147140000000     0.083906666667   
Si     0.406950000000     0.145910000000     0.170173333333   
Si     0.409590000000     0.146370000000     0.288330000000   
Si     0.431395000000     0.095685000000     0.031180000000   
Si     0.443860000000     0.095640000000     0.244336666667   
Si     0.245260000000     0.193055000000     0.040550000000   
Si     0.383825000000     0.250000000000     0.260043333333   
Si     0.355770000000     0.000000000000     0.275506666667   
Si     0.405525000000     0.000000000000     0.237496666667   
Si     0.359730000000     0.000000000000     0.152696666667   
Si     0.397310000000     0.000000000000     0.018900000000   
O      0.411930000000     0.201500000000     0.075413333333   
O      0.422875000000     0.109865000000     0.068376666667   
O      0.411935000000     0.140855000000     0.129430000000   
O      0.369105000000     0.136450000000     0.063963333333   
O      0.409590000000     0.201930000000     0.182810000000   
O      0.432500000000     0.116015000000     0.201306666667   
O      0.421480000000     0.139065000000     0.000643333333   
O      0.402260000000     0.202585000000     0.278740000000   
O      0.436195000000     0.133735000000     0.272526666667   
O      0.413950000000     0.047640000000     0.011816666667   
O      0.425990000000     0.047280000000     0.246583333333   
O      0.354410000000     0.250000000000     0.271756666667   
O      0.376070000000     0.250000000000     0.214396666667   
O      0.364660000000     0.000000000000     0.321393333333   
O      0.385610000000     0.000000000000     0.264846666667   
O      0.385760000000     0.000000000000     0.193156666667   
O      0.271795000000     0.168270000000     0.074003333333   
O      0.215885000000     0.165695000000     0.041233333333   
O      0.250000000000     0.315355000000     0.000000000000   
O      0.243440000000     0.250000000000     0.048416666667   
Si     0.096330000000     0.147140000000     0.249426666667   
Si     0.093050000000     0.145910000000     0.163160000000   
Si     0.090410000000     0.146370000000     0.045003333333   
Si     0.068605000000     0.095685000000     0.302153333333   
Si     0.056140000000     0.095640000000     0.088996666667   
Si     0.254740000000     0.193055000000     0.292783333333   
Si     0.116175000000     0.250000000000     0.073290000000   
Si     0.144230000000     0.000000000000     0.057826666667   
Si     0.094475000000     0.000000000000     0.095836666667   
Si     0.140270000000     0.000000000000     0.180636666667   
Si     0.102690000000     0.000000000000     0.314433333333   
O      0.088070000000     0.201500000000     0.257920000000   
O      0.077125000000     0.109865000000     0.264956666667   
O      0.088065000000     0.140855000000     0.203903333333   
O      0.130895000000     0.136450000000     0.269370000000   
O      0.090410000000     0.201930000000     0.150523333333   
O      0.067500000000     0.116015000000     0.132026666667   
O      0.078520000000     0.139065000000     0.332690000000   
O      0.097740000000     0.202585000000     0.054593333333   
O      0.063805000000     0.133735000000     0.060806666667   
O      0.086050000000     0.047640000000     0.321516666667   
O      0.074010000000     0.047280000000     0.086750000000   
O      0.145590000000     0.250000000000     0.061576666667   
O      0.123930000000     0.250000000000     0.118936666667   
O      0.135340000000     0.000000000000     0.011940000000   
O      0.114390000000     0.000000000000     0.068486666667   
O      0.114240000000     0.000000000000     0.140176666667   
O      0.228205000000     0.168270000000     0.259330000000   
O      0.284115000000     0.165695000000     0.292100000000   
O      0.256560000000     0.250000000000     0.284916666667   
Si     0.096330000000     0.352860000000     0.249426666667   
Si     0.093050000000     0.354090000000     0.163160000000   
Si     0.090410000000     0.353630000000     0.045003333333   
Si     0.068605000000     0.404315000000     0.302153333333   
Si     0.056140000000     0.404360000000     0.088996666667   
Si     0.254740000000     0.306945000000     0.292783333333   
O      0.088070000000     0.298500000000     0.257920000000   
O      0.077125000000     0.390135000000     0.264956666667   
O      0.088065000000     0.359145000000     0.203903333333   
O      0.130895000000     0.363550000000     0.269370000000   
O      0.090410000000     0.298070000000     0.150523333333   
O      0.067500000000     0.383985000000     0.132026666667   
O      0.078520000000     0.360935000000     0.332690000000   
O      0.097740000000     0.297415000000     0.054593333333   
O      0.063805000000     0.366265000000     0.060806666667   
O      0.086050000000     0.452360000000     0.321516666667   
O      0.074010000000     0.452720000000     0.086750000000   
O      0.228205000000     0.331730000000     0.259330000000   
O      0.284115000000     0.334305000000     0.292100000000   
O      0.250000000000     0.184645000000     0.000000000000   
Si     0.403670000000     0.352860000000     0.083906666667   
Si     0.406950000000     0.354090000000     0.170173333333   
Si     0.409590000000     0.353630000000     0.288330000000   
Si     0.431395000000     0.404315000000     0.031180000000   
Si     0.443860000000     0.404360000000     0.244336666667   
Si     0.245260000000     0.306945000000     0.040550000000   
O      0.411930000000     0.298500000000     0.075413333333   
O      0.422875000000     0.390135000000     0.068376666667   
O      0.411935000000     0.359145000000     0.129430000000   
O      0.369105000000     0.363550000000     0.063963333333   
O      0.409590000000     0.298070000000     0.182810000000   
O      0.432500000000     0.383985000000     0.201306666667   
O      0.421480000000     0.360935000000     0.000643333333   
O      0.402260000000     0.297415000000     0.278740000000   
O      0.436195000000     0.366265000000     0.272526666667   
O      0.413950000000     0.452360000000     0.011816666667   
O      0.425990000000     0.452720000000     0.246583333333   
O      0.271795000000     0.331730000000     0.074003333333   
O      0.215885000000     0.334305000000     0.041233333333   
Si     0.153670000000     0.397140000000     0.417240000000   
Si     0.156950000000     0.395910000000     0.503506666667   
Si     0.159590000000     0.396370000000     0.621663333333   
Si     0.181395000000     0.345685000000     0.364513333333   
Si     0.193860000000     0.345640000000     0.577670000000   
Si     0.495260000000     0.443055000000     0.373883333333   
Si     0.133825000000     0.000000000000     0.593376666667   
Si     0.105770000000     0.250000000000     0.608840000000   
Si     0.155525000000     0.250000000000     0.570830000000   
Si     0.109730000000     0.250000000000     0.486030000000   
Si     0.147310000000     0.250000000000     0.352233333333   
O      0.161930000000     0.451500000000     0.408746666667   
O      0.172875000000     0.359865000000     0.401710000000   
O      0.161935000000     0.390855000000     0.462763333333   
O      0.119105000000     0.386450000000     0.397296666667   
O      0.159590000000     0.451930000000     0.516143333333   
O      0.125000000000     0.375000000000     0.500000000000   
O      0.182500000000     0.366015000000     0.534640000000   
O      0.171480000000     0.389065000000     0.333976666667   
O      0.152260000000     0.452585000000     0.612073333333   
O      0.186195000000     0.383735000000     0.605860000000   
O      0.163950000000     0.297640000000     0.345150000000   
O      0.175990000000     0.297280000000     0.579916666667   
O      0.104410000000     0.000000000000     0.605090000000   
O      0.126070000000     0.000000000000     0.547730000000   
O      0.114660000000     0.250000000000     0.654726666667   
O      0.135610000000     0.250000000000     0.598180000000   
O      0.135760000000     0.250000000000     0.526490000000   
O      0.021795000000     0.418270000000     0.407336666667   
O      0.465885000000     0.415695000000     0.374566666667   
O      0.000000000000     0.065355000000     0.333333333333   
O      0.493440000000     0.000000000000     0.381750000000   
Si     0.346330000000     0.397140000000     0.582760000000   
Si     0.343050000000     0.395910000000     0.496493333333   
Si     0.340410000000     0.396370000000     0.378336666667   
Si     0.318605000000     0.345685000000     0.635486666667   
Si     0.306140000000     0.345640000000     0.422330000000   
Si     0.004740000000     0.443055000000     0.626116666667   
Si     0.366175000000     0.000000000000     0.406623333333   
Si     0.394230000000     0.250000000000     0.391160000000   
Si     0.344475000000     0.250000000000     0.429170000000   
Si     0.390270000000     0.250000000000     0.513970000000   
Si     0.352690000000     0.250000000000     0.647766666667   
O      0.338070000000     0.451500000000     0.591253333333   
O      0.327125000000     0.359865000000     0.598290000000   
O      0.338065000000     0.390855000000     0.537236666667   
O      0.380895000000     0.386450000000     0.602703333333   
O      0.340410000000     0.451930000000     0.483856666667   
O      0.375000000000     0.375000000000     0.500000000000   
O      0.317500000000     0.366015000000     0.465360000000   
O      0.328520000000     0.389065000000     0.666023333333   
O      0.347740000000     0.452585000000     0.387926666667   
O      0.313805000000     0.383735000000     0.394140000000   
O      0.336050000000     0.297640000000     0.654850000000   
O      0.324010000000     0.297280000000     0.420083333333   
O      0.395590000000     0.000000000000     0.394910000000   
O      0.373930000000     0.000000000000     0.452270000000   
O      0.385340000000     0.250000000000     0.345273333333   
O      0.364390000000     0.250000000000     0.401820000000   
O      0.364240000000     0.250000000000     0.473510000000   
O      0.478205000000     0.418270000000     0.592663333333   
O      0.034115000000     0.415695000000     0.625433333333   
O      0.006560000000     0.000000000000     0.618250000000   
Si     0.346330000000     0.102860000000     0.582760000000   
Si     0.343050000000     0.104090000000     0.496493333333   
Si     0.340410000000     0.103630000000     0.378336666667   
Si     0.318605000000     0.154315000000     0.635486666667   
Si     0.306140000000     0.154360000000     0.422330000000   
Si     0.004740000000     0.056945000000     0.626116666667   
O      0.338070000000     0.048500000000     0.591253333333   
O      0.327125000000     0.140135000000     0.598290000000   
O      0.338065000000     0.109145000000     0.537236666667   
O      0.380895000000     0.113550000000     0.602703333333   
O      0.340410000000     0.048070000000     0.483856666667   
O      0.375000000000     0.125000000000     0.500000000000   
O      0.317500000000     0.133985000000     0.465360000000   
O      0.328520000000     0.110935000000     0.666023333333   
O      0.347740000000     0.047415000000     0.387926666667   
O      0.313805000000     0.116265000000     0.394140000000   
O      0.336050000000     0.202360000000     0.654850000000   
O      0.324010000000     0.202720000000     0.420083333333   
O      0.478205000000     0.081730000000     0.592663333333   
O      0.034115000000     0.084305000000     0.625433333333   
O      0.000000000000     0.434645000000     0.333333333333   
Si     0.153670000000     0.102860000000     0.417240000000   
Si     0.156950000000     0.104090000000     0.503506666667   
Si     0.159590000000     0.103630000000     0.621663333333   
Si     0.181395000000     0.154315000000     0.364513333333   
Si     0.193860000000     0.154360000000     0.577670000000   
Si     0.495260000000     0.056945000000     0.373883333333   
O      0.161930000000     0.048500000000     0.408746666667   
O      0.172875000000     0.140135000000     0.401710000000   
O      0.161935000000     0.109145000000     0.462763333333   
O      0.119105000000     0.113550000000     0.397296666667   
O      0.159590000000     0.048070000000     0.516143333333   
O      0.125000000000     0.125000000000     0.500000000000   
O      0.182500000000     0.133985000000     0.534640000000   
O      0.171480000000     0.110935000000     0.333976666667   
O      0.152260000000     0.047415000000     0.612073333333   
O      0.186195000000     0.116265000000     0.605860000000   
O      0.163950000000     0.202360000000     0.345150000000   
O      0.175990000000     0.202720000000     0.579916666667   
O      0.021795000000     0.081730000000     0.407336666667   
O      0.465885000000     0.084305000000     0.374566666667   
Si     0.403670000000     0.147140000000     0.417240000000   
Si     0.406950000000     0.145910000000     0.503506666667   
Si     0.409590000000     0.146370000000     0.621663333333   
Si     0.431395000000     0.095685000000     0.364513333333   
Si     0.443860000000     0.095640000000     0.577670000000   
Si     0.245260000000     0.193055000000     0.373883333333   
Si     0.383825000000     0.250000000000     0.593376666667   
Si     0.355770000000     0.000000000000     0.608840000000   
Si     0.405525000000     0.000000000000     0.570830000000   
Si     0.359730000000     0.000000000000     0.486030000000   
Si     0.397310000000     0.000000000000     0.352233333333   
O      0.411930000000     0.201500000000     0.408746666667   
O      0.422875000000     0.109865000000     0.401710000000   
O      0.411935000000     0.140855000000     0.462763333333   
O      0.369105000000     0.136450000000     0.397296666667   
O      0.409590000000     0.201930000000     0.516143333333   
O      0.432500000000     0.116015000000     0.534640000000   
O      0.421480000000     0.139065000000     0.333976666667   
O      0.402260000000     0.202585000000     0.612073333333   
O      0.436195000000     0.133735000000     0.605860000000   
O      0.413950000000     0.047640000000     0.345150000000   
O      0.425990000000     0.047280000000     0.579916666667   
O      0.354410000000     0.250000000000     0.605090000000   
O      0.376070000000     0.250000000000     0.547730000000   
O      0.364660000000     0.000000000000     0.654726666667   
O      0.385610000000     0.000000000000     0.598180000000   
O      0.385760000000     0.000000000000     0.526490000000   
O      0.271795000000     0.168270000000     0.407336666667   
O      0.215885000000     0.165695000000     0.374566666667   
O      0.250000000000     0.315355000000     0.333333333333   
O      0.243440000000     0.250000000000     0.381750000000   
Si     0.096330000000     0.147140000000     0.582760000000   
Si     0.093050000000     0.145910000000     0.496493333333   
Si     0.090410000000     0.146370000000     0.378336666667   
Si     0.068605000000     0.095685000000     0.635486666667   
Si     0.056140000000     0.095640000000     0.422330000000   
Si     0.254740000000     0.193055000000     0.626116666667   
Si     0.116175000000     0.250000000000     0.406623333333   
Si     0.144230000000     0.000000000000     0.391160000000   
Si     0.094475000000     0.000000000000     0.429170000000   
Si     0.140270000000     0.000000000000     0.513970000000   
Si     0.102690000000     0.000000000000     0.647766666667   
O      0.088070000000     0.201500000000     0.591253333333   
O      0.077125000000     0.109865000000     0.598290000000   
O      0.088065000000     0.140855000000     0.537236666667   
O      0.130895000000     0.136450000000     0.602703333333   
O      0.090410000000     0.201930000000     0.483856666667   
O      0.067500000000     0.116015000000     0.465360000000   
O      0.078520000000     0.139065000000     0.666023333333   
O      0.097740000000     0.202585000000     0.387926666667   
O      0.063805000000     0.133735000000     0.394140000000   
O      0.086050000000     0.047640000000     0.654850000000   
O      0.074010000000     0.047280000000     0.420083333333   
O      0.145590000000     0.250000000000     0.394910000000   
O      0.123930000000     0.250000000000     0.452270000000   
O      0.135340000000     0.000000000000     0.345273333333   
O      0.114390000000     0.000000000000     0.401820000000   
O      0.114240000000     0.000000000000     0.473510000000   
O      0.228205000000     0.168270000000     0.592663333333   
O      0.284115000000     0.165695000000     0.625433333333   
O      0.256560000000     0.250000000000     0.618250000000   
Si     0.096330000000     0.352860000000     0.582760000000   
Si     0.093050000000     0.354090000000     0.496493333333   
Si     0.090410000000     0.353630000000     0.378336666667   
Si     0.068605000000     0.404315000000     0.635486666667   
Si     0.056140000000     0.404360000000     0.422330000000   
Si     0.254740000000     0.306945000000     0.626116666667   
O      0.088070000000     0.298500000000     0.591253333333   
O      0.077125000000     0.390135000000     0.598290000000   
O      0.088065000000     0.359145000000     0.537236666667   
O      0.130895000000     0.363550000000     0.602703333333   
O      0.090410000000     0.298070000000     0.483856666667   
O      0.067500000000     0.383985000000     0.465360000000   
O      0.078520000000     0.360935000000     0.666023333333   
O      0.097740000000     0.297415000000     0.387926666667   
O      0.063805000000     0.366265000000     0.394140000000   
O      0.086050000000     0.452360000000     0.654850000000   
O      0.074010000000     0.452720000000     0.420083333333   
O      0.228205000000     0.331730000000     0.592663333333   
O      0.284115000000     0.334305000000     0.625433333333   
O      0.250000000000     0.184645000000     0.333333333333   
Si     0.403670000000     0.352860000000     0.417240000000   
Si     0.406950000000     0.354090000000     0.503506666667   
Si     0.409590000000     0.353630000000     0.621663333333   
Si     0.431395000000     0.404315000000     0.364513333333   
Si     0.443860000000     0.404360000000     0.577670000000   
Si     0.245260000000     0.306945000000     0.373883333333   
O      0.411930000000     0.298500000000     0.408746666667   
O      0.422875000000     0.390135000000     0.401710000000   
O      0.411935000000     0.359145000000     0.462763333333   
O      0.369105000000     0.363550000000     0.397296666667   
O      0.409590000000     0.298070000000     0.516143333333   
O      0.432500000000     0.383985000000     0.534640000000   
O      0.421480000000     0.360935000000     0.333976666667   
O      0.402260000000     0.297415000000     0.612073333333   
O      0.436195000000     0.366265000000     0.605860000000   
O      0.413950000000     0.452360000000     0.345150000000   
O      0.425990000000     0.452720000000     0.579916666667   
O      0.271795000000     0.331730000000     0.407336666667   
O      0.215885000000     0.334305000000     0.374566666667   
Si     0.153670000000     0.397140000000     0.750573333333   
Si     0.156950000000     0.395910000000     0.836840000000   
Si     0.159590000000     0.396370000000     0.954996666667   
Si     0.181395000000     0.345685000000     0.697846666667   
Si     0.193860000000     0.345640000000     0.911003333333   
Si     0.495260000000     0.443055000000     0.707216666667   
Si     0.133825000000     0.000000000000     0.926710000000   
Si     0.105770000000     0.250000000000     0.942173333333   
Si     0.155525000000     0.250000000000     0.904163333333   
Si     0.109730000000     0.250000000000     0.819363333333   
Si     0.147310000000     0.250000000000     0.685566666667   
O      0.161930000000     0.451500000000     0.742080000000   
O      0.172875000000     0.359865000000     0.735043333333   
O      0.161935000000     0.390855000000     0.796096666667   
O      0.119105000000     0.386450000000     0.730630000000   
O      0.159590000000     0.451930000000     0.849476666667   
O      0.125000000000     0.375000000000     0.833333333333   
O      0.182500000000     0.366015000000     0.867973333333   
O      0.171480000000     0.389065000000     0.667310000000   
O      0.152260000000     0.452585000000     0.945406666667   
O      0.186195000000     0.383735000000     0.939193333333   
O      0.163950000000     0.297640000000     0.678483333333   
O      0.175990000000     0.297280000000     0.913250000000   
O      0.104410000000     0.000000000000     0.938423333333   
O      0.126070000000     0.000000000000     0.881063333333   
O      0.114660000000     0.250000000000     0.988060000000   
O      0.135610000000     0.250000000000     0.931513333333   
O      0.135760000000     0.250000000000     0.859823333333   
O      0.021795000000     0.418270000000     0.740670000000   
O      0.465885000000     0.415695000000     0.707900000000   
O      0.000000000000     0.065355000000     0.666666666667   
O      0.493440000000     0.000000000000     0.715083333333   
Si     0.346330000000     0.397140000000     0.916093333333   
Si     0.343050000000     0.395910000000     0.829826666667   
Si     0.340410000000     0.396370000000     0.711670000000   
Si     0.318605000000     0.345685000000     0.968820000000   
Si     0.306140000000     0.345640000000     0.755663333333   
Si     0.004740000000     0.443055000000     0.959450000000   
Si     0.366175000000     0.000000000000     0.739956666667   
Si     0.394230000000     0.250000000000     0.724493333333   
Si     0.344475000000     0.250000000000     0.762503333333   
Si     0.390270000000     0.250000000000     0.847303333333   
Si     0.352690000000     0.250000000000     0.981100000000   
O      0.338070000000     0.451500000000     0.924586666667   
O      0.327125000000     0.359865000000     0.931623333333   
O      0.338065000000     0.390855000000     0.870570000000   
O      0.380895000000     0.386450000000     0.936036666667   
O      0.340410000000     0.451930000000     0.817190000000   
O      0.375000000000     0.375000000000     0.833333333333   
O      0.317500000000     0.366015000000     0.798693333333   
O      0.328520000000     0.389065000000     0.999356666667   
O      0.347740000000     0.452585000000     0.721260000000   
O      0.313805000000     0.383735000000     0.727473333333   
O      0.336050000000     0.297640000000     0.988183333333   
O      0.324010000000     0.297280000000     0.753416666667   
O      0.395590000000     0.000000000000     0.728243333333   
O      0.373930000000     0.000000000000     0.785603333333   
O      0.385340000000     0.250000000000     0.678606666667   
O      0.364390000000     0.250000000000     0.735153333333   
O      0.364240000000     0.250000000000     0.806843333333   
O      0.478205000000     0.418270000000     0.925996666667   
O      0.034115000000     0.415695000000     0.958766666667   
O      0.006560000000     0.000000000000     0.951583333333   
Si     0.346330000000     0.102860000000     0.916093333333   