%BLOCK LATTICE_CART
ang    # angstrom units
  18.506000000000    0.000000000000     0.000000000000   
  0.000000000000     18.506000000000    0.000000000000   
  0.000000000000     0.000000000000     5.268000000000   
%ENDBLOCK LATTICE_CART

%BLOCK POSITIONS_FRAC
O      0.096150000000     0.096150000000     0.100000000000   
O      0.157400000000     0.092600000000     0.150000000000   
O      0.134900000000     0.035750000000     0.100000000000   
O      0.085300000000     0.000000000000     0.050000000000   
O      0.035550000000     0.035550000000     0.000000000000   
Si     0.136300000000     0.079250000000     0.100000000000   
Si     0.060450000000     0.000000000000     0.000000000000   
Si     0.110200000000     0.000000000000     0.100000000000   
O      0.403850000000     0.096150000000     0.100000000000   
O      0.407400000000     0.157400000000     0.150000000000   
O      0.464250000000     0.134900000000     0.100000000000   
O      0.000000000000     0.085300000000     0.050000000000   
O      0.464450000000     0.035550000000     0.000000000000   
Si     0.420750000000     0.136300000000     0.100000000000   
Si     0.000000000000     0.060450000000     0.000000000000   
Si     0.000000000000     0.110200000000     0.100000000000   
O      0.403850000000     0.403850000000     0.100000000000   
O      0.342600000000     0.407400000000     0.150000000000   
O      0.365100000000     0.464250000000     0.100000000000   
O      0.414700000000     0.000000000000     0.050000000000   
O      0.464450000000     0.464450000000     0.000000000000   
Si     0.363700000000     0.420750000000     0.100000000000   
Si     0.439550000000     0.000000000000     0.000000000000   
Si     0.389800000000     0.000000000000     0.100000000000   
O      0.096150000000     0.403850000000     0.100000000000   
O      0.092600000000     0.342600000000     0.150000000000   
O      0.035750000000     0.365100000000     0.100000000000   
O      0.000000000000     0.414700000000     0.050000000000   
O      0.035550000000     0.464450000000     0.000000000000   
Si     0.079250000000     0.363700000000     0.100000000000   
Si     0.000000000000     0.439550000000     0.000000000000   
Si     0.000000000000     0.389800000000     0.100000000000   
O      0.157400000000     0.407400000000     0.050000000000   
O      0.134900000000     0.464250000000     0.100000000000   
O      0.085300000000     0.000000000000     0.150000000000   
Si     0.136300000000     0.420750000000     0.100000000000   
O      0.092600000000     0.157400000000     0.050000000000   
O      0.035750000000     0.134900000000     0.100000000000   
O      0.000000000000     0.085300000000     0.150000000000   
Si     0.079250000000     0.136300000000     0.100000000000   
O      0.342600000000     0.092600000000     0.050000000000   
O      0.365100000000     0.035750000000     0.100000000000   
O      0.414700000000     0.000000000000     0.150000000000   
Si     0.363700000000     0.079250000000     0.100000000000   
O      0.407400000000     0.342600000000     0.050000000000   
O      0.464250000000     0.365100000000     0.100000000000   
O      0.000000000000     0.414700000000     0.150000000000   
Si     0.420750000000     0.363700000000     0.100000000000   
O      0.342600000000     0.407400000000     0.050000000000   
O      0.092600000000     0.342600000000     0.050000000000   
O      0.157400000000     0.092600000000     0.050000000000   
O      0.407400000000     0.157400000000     0.050000000000   
O      0.342600000000     0.092600000000     0.150000000000   
O      0.407400000000     0.342600000000     0.150000000000   
O      0.157400000000     0.407400000000     0.150000000000   
O      0.092600000000     0.157400000000     0.150000000000   
O      0.346150000000     0.346150000000     0.000000000000   
O      0.384900000000     0.285750000000     0.000000000000   
O      0.335300000000     0.250000000000     0.150000000000   
O      0.285550000000     0.285550000000     0.100000000000   
Si     0.386300000000     0.329250000000     0.000000000000   
Si     0.310450000000     0.250000000000     0.100000000000   
Si     0.360200000000     0.250000000000     0.000000000000   
O      0.153850000000     0.346150000000     0.000000000000   
O      0.214250000000     0.384900000000     0.000000000000   
O      0.250000000000     0.335300000000     0.150000000000   
O      0.214450000000     0.285550000000     0.100000000000   
Si     0.170750000000     0.386300000000     0.000000000000   
Si     0.250000000000     0.310450000000     0.100000000000   
Si     0.250000000000     0.360200000000     0.000000000000   
O      0.153850000000     0.153850000000     0.000000000000   
O      0.115100000000     0.214250000000     0.000000000000   
O      0.164700000000     0.250000000000     0.150000000000   
O      0.214450000000     0.214450000000     0.100000000000   
Si     0.113700000000     0.170750000000     0.000000000000   
Si     0.189550000000     0.250000000000     0.100000000000   
Si     0.139800000000     0.250000000000     0.000000000000   
O      0.346150000000     0.153850000000     0.000000000000   
O      0.285750000000     0.115100000000     0.000000000000   
O      0.250000000000     0.164700000000     0.150000000000   
O      0.285550000000     0.214450000000     0.100000000000   
Si     0.329250000000     0.113700000000     0.000000000000   
Si     0.250000000000     0.189550000000     0.100000000000   
Si     0.250000000000     0.139800000000     0.000000000000   
O      0.384900000000     0.214250000000     0.000000000000   
O      0.335300000000     0.250000000000     0.050000000000   
Si     0.386300000000     0.170750000000     0.000000000000   
O      0.285750000000     0.384900000000     0.000000000000   
O      0.250000000000     0.335300000000     0.050000000000   
Si     0.329250000000     0.386300000000     0.000000000000   
O      0.115100000000     0.285750000000     0.000000000000   
O      0.164700000000     0.250000000000     0.050000000000   
Si     0.113700000000     0.329250000000     0.000000000000   
O      0.214250000000     0.115100000000     0.000000000000   
O      0.250000000000     0.164700000000     0.050000000000   
Si     0.170750000000     0.113700000000     0.000000000000   
O      0.096150000000     0.096150000000     0.300000000000   
O      0.157400000000     0.092600000000     0.350000000000   
O      0.134900000000     0.035750000000     0.300000000000   
O      0.085300000000     0.000000000000     0.250000000000   
O      0.035550000000     0.035550000000     0.200000000000   
Si     0.136300000000     0.079250000000     0.300000000000   
Si     0.060450000000     0.000000000000     0.200000000000   
Si     0.110200000000     0.000000000000     0.300000000000   
O      0.403850000000     0.096150000000     0.300000000000   
O      0.407400000000     0.157400000000     0.350000000000   
O      0.464250000000     0.134900000000     0.300000000000   
O      0.000000000000     0.085300000000     0.250000000000   
O      0.464450000000     0.035550000000     0.200000000000   
Si     0.420750000000     0.136300000000     0.300000000000   
Si     0.000000000000     0.060450000000     0.200000000000   
Si     0.000000000000     0.110200000000     0.300000000000   
O      0.403850000000     0.403850000000     0.300000000000   
O      0.342600000000     0.407400000000     0.350000000000   
O      0.365100000000     0.464250000000     0.300000000000   
O      0.414700000000     0.000000000000     0.250000000000   
O      0.464450000000     0.464450000000     0.200000000000   
Si     0.363700000000     0.420750000000     0.300000000000   
Si     0.439550000000     0.000000000000     0.200000000000   
Si     0.389800000000     0.000000000000     0.300000000000   
O      0.096150000000     0.403850000000     0.300000000000   
O      0.092600000000     0.342600000000     0.350000000000   
O      0.035750000000     0.365100000000     0.300000000000   
O      0.000000000000     0.414700000000     0.250000000000   
O      0.035550000000     0.464450000000     0.200000000000   
Si     0.079250000000     0.363700000000     0.300000000000   
Si     0.000000000000     0.439550000000     0.200000000000   
Si     0.000000000000     0.389800000000     0.300000000000   
O      0.157400000000     0.407400000000     0.250000000000   
O      0.134900000000     0.464250000000     0.300000000000   
O      0.085300000000     0.000000000000     0.350000000000   
Si     0.136300000000     0.420750000000     0.300000000000   
O      0.092600000000     0.157400000000     0.250000000000   
O      0.035750000000     0.134900000000     0.300000000000   
O      0.000000000000     0.085300000000     0.350000000000   
Si     0.079250000000     0.136300000000     0.300000000000   
O      0.342600000000     0.092600000000     0.250000000000   
O      0.365100000000     0.035750000000     0.300000000000   
O      0.414700000000     0.000000000000     0.350000000000   
Si     0.363700000000     0.079250000000     0.300000000000   
O      0.407400000000     0.342600000000     0.250000000000   
O      0.464250000000     0.365100000000     0.300000000000   
O      0.000000000000     0.414700000000     0.350000000000   
Si     0.420750000000     0.363700000000     0.300000000000   
O      0.342600000000     0.407400000000     0.250000000000   
O      0.092600000000     0.342600000000     0.250000000000   
O      0.157400000000     0.092600000000     0.250000000000   
O      0.407400000000     0.157400000000     0.250000000000   
O      0.342600000000     0.092600000000     0.350000000000   
O      0.407400000000     0.342600000000     0.350000000000   
O      0.157400000000     0.407400000000     0.350000000000   
O      0.092600000000     0.157400000000     0.350000000000   
O      0.346150000000     0.346150000000     0.200000000000   
O      0.384900000000     0.285750000000     0.200000000000   
O      0.335300000000     0.250000000000     0.350000000000   
O      0.285550000000     0.285550000000     0.300000000000   
Si     0.386300000000     0.329250000000     0.200000000000   
Si     0.310450000000     0.250000000000     0.300000000000   
Si     0.360200000000     0.250000000000     0.200000000000   
O      0.153850000000     0.346150000000     0.200000000000   
O      0.214250000000     0.384900000000     0.200000000000   
O      0.250000000000     0.335300000000     0.350000000000   
O      0.214450000000     0.285550000000     0.300000000000   
Si     0.170750000000     0.386300000000     0.200000000000   
Si     0.250000000000     0.310450000000     0.300000000000   
Si     0.250000000000     0.360200000000     0.200000000000   
O      0.153850000000     0.153850000000     0.200000000000   
O      0.115100000000     0.214250000000     0.200000000000   
O      0.164700000000     0.250000000000     0.350000000000   
O      0.214450000000     0.214450000000     0.300000000000   
Si     0.113700000000     0.170750000000     0.200000000000   
Si     0.189550000000     0.250000000000     0.300000000000   
Si     0.139800000000     0.250000000000     0.200000000000   
O      0.346150000000     0.153850000000     0.200000000000   
O      0.285750000000     0.115100000000     0.200000000000   
O      0.250000000000     0.164700000000     0.350000000000   
O      0.285550000000     0.214450000000     0.300000000000   
Si     0.329250000000     0.113700000000     0.200000000000   
Si     0.250000000000     0.189550000000     0.300000000000   
Si     0.250000000000     0.139800000000     0.200000000000   
O      0.384900000000     0.214250000000     0.200000000000   
O      0.335300000000     0.250000000000     0.250000000000   
Si     0.386300000000     0.170750000000     0.200000000000   
O      0.285750000000     0.384900000000     0.200000000000   
O      0.250000000000     0.335300000000     0.250000000000   
Si     0.329250000000     0.386300000000     0.200000000000   
O      0.115100000000     0.285750000000     0.200000000000   
O      0.164700000000     0.250000000000     0.250000000000   
Si     0.113700000000     0.329250000000     0.200000000000   
O      0.214250000000     0.115100000000     0.200000000000   
O      0.250000000000     0.164700000000     0.250000000000   
Si     0.170750000000     0.113700000000     0.200000000000   
O      0.096150000000     0.096150000000     0.500000000000   
O      0.157400000000     0.092600000000     0.550000000000   
O      0.134900000000     0.035750000000     0.500000000000   
O      0.085300000000     0.000000000000     0.450000000000   
O      0.035550000000     0.035550000000     0.400000000000   
Si     0.136300000000     0.079250000000     0.500000000000   
Si     0.060450000000     0.000000000000     0.400000000000   
Si     0.110200000000     0.000000000000     0.500000000000   
O      0.403850000000     0.096150000000     0.500000000000   
O      0.407400000000     0.157400000000     0.550000000000   
O      0.464250000000     0.134900000000     0.500000000000   
O      0.000000000000     0.085300000000     0.450000000000   
O      0.464450000000     0.035550000000     0.400000000000   
Si     0.420750000000     0.136300000000     0.500000000000   
Si     0.000000000000     0.060450000000     0.400000000000   
Si     0.000000000000     0.110200000000     0.500000000000   
O      0.403850000000     0.403850000000     0.500000000000   
O      0.342600000000     0.407400000000     0.550000000000   
O      0.365100000000     0.464250000000     0.500000000000   
O      0.414700000000     0.000000000000     0.450000000000   
O      0.464450000000     0.464450000000     0.400000000000   
Si     0.363700000000     0.420750000000     0.500000000000   
Si     0.439550000000     0.000000000000     0.400000000000   
Si     0.389800000000     0.000000000000     0.500000000000   
O      0.096150000000     0.403850000000     0.500000000000   
O      0.092600000000     0.342600000000     0.550000000000   
O      0.035750000000     0.365100000000     0.500000000000   
O      0.000000000000     0.414700000000     0.450000000000   
O      0.035550000000     0.464450000000     0.400000000000   
Si     0.079250000000     0.363700000000     0.500000000000   
Si     0.000000000000     0.439550000000     0.400000000000   
Si     0.000000000000     0.389800000000     0.500000000000   
O      0.157400000000     0.407400000000     0.450000000000   
O      0.134900000000     0.464250000000     0.500000000000   
O      0.085300000000     0.000000000000     0.550000000000   
Si     0.136300000000     0.420750000000     0.500000000000   
O      0.092600000000     0.157400000000     0.450000000000   
O      0.035750000000     0.134900000000     0.500000000000   
O      0.000000000000     0.085300000000     0.550000000000   
Si     0.079250000000     0.136300000000     0.500000000000   
O      0.342600000000     0.092600000000     0.450000000000   
O      0.365100000000     0.035750000000     0.500000000000   
O      0.414700000000     0.000000000000     0.550000000000   
Si     0.363700000000     0.079250000000     0.500000000000   
O      0.407400000000     0.342600000000     0.450000000000   
O      0.464250000000     0.365100000000     0.500000000000   
O      0.000000000000     0.414700000000     0.550000000000   
Si     0.420750000000     0.363700000000     0.500000000000   
O      0.342600000000     0.407400000000     0.450000000000   
O      0.092600000000     0.342600000000     0.450000000000   
O      0.157400000000     0.092600000000     0.450000000000   
O      0.407400000000     0.157400000000     0.450000000000   
O      0.342600000000     0.092600000000     0.550000000000   
O      0.407400000000     0.342600000000     0.550000000000   
O      0.157400000000     0.407400000000     0.550000000000   
O      0.092600000000     0.157400000000     0.550000000000   
O      0.346150000000     0.346150000000     0.400000000000   
O      0.384900000000     0.285750000000     0.400000000000   
O      0.335300000000     0.250000000000     0.550000000000   
O      0.285550000000     0.285550000000     0.500000000000   
Si     0.386300000000     0.329250000000     0.400000000000   
Si     0.310450000000     0.250000000000     0.500000000000   
Si     0.360200000000     0.250000000000     0.400000000000   
O      0.153850000000     0.346150000000     0.400000000000   
O      0.214250000000     0.384900000000     0.400000000000   
O      0.250000000000     0.335300000000     0.550000000000   
O      0.214450000000     0.285550000000     0.500000000000   
Si     0.170750000000     0.386300000000     0.400000000000   
Si     0.250000000000     0.310450000000     0.500000000000   
Si     0.250000000000     0.360200000000     0.400000000000   
O      0.153850000000     0.153850000000     0.400000000000   
O      0.115100000000     0.214250000000     0.400000000000   
O      0.164700000000     0.250000000000     0.550000000000   
O      0.214450000000     0.214450000000     0.500000000000   
Si     0.113700000000     0.170750000000     0.400000000000   
Si     0.189550000000     0.250000000000     0.500000000000   
Si     0.139800000000     0.250000000000     0.400000000000   
O      0.346150000000     0.153850000000     0.400000000000   
O      0.285750000000     0.115100000000     0.400000000000   
O      0.250000000000     0.164700000000     0.550000000000   
O      0.285550000000     0.214450000000     0.500000000000   
Si     0.329250000000     0.113700000000     0.400000000000   
Si     0.250000000000     0.189550000000     0.500000000000   
Si     0.250000000000     0.139800000000     0.400000000000   
O      0.384900000000     0.214250000000     0.400000000000   
O      0.335300000000     0.250000000000     0.450000000000   
Si     0.386300000000     0.170750000000     0.400000000000   
O      0.285750000000     0.384900000000     0.400000000000   
O      0.250000000000     0.335300000000     0.450000000000   
Si     0.329250000000     0.386300000000     0.400000000000   
O      0.115100000000     0.285750000000     0.400000000000   
O      0.164700000000     0.250000000000     0.450000000000   
Si     0.113700000000     0.329250000000     0.400000000000   
O      0.214250000000     0.115100000000     0.400000000000   
O      0.250000000000     0.164700000000     0.450000000000   
Si     0.170750000000     0.113700000000     0.400000000000   
O      0.096150000000     0.096150000000     0.700000000000   
O      0.157400000000     0.092600000000     0.750000000000   
O      0.134900000000     0.035750000000     0.700000000000   
O      0.085300000000     0.000000000000     0.650000000000   
O      0.035550000000     0.035550000000     0.600000000000   
Si     0.136300000000     0.079250000000     0.700000000000   
Si     0.060450000000     0.000000000000     0.600000000000   
Si     0.110200000000     0.000000000000     0.700000000000   
O      0.403850000000     0.096150000000     0.700000000000   
O      0.407400000000     0.157400000000     0.750000000000   
O      0.464250000000     0.134900000000     0.700000000000   
O      0.000000000000     0.085300000000     0.650000000000   
O      0.464450000000     0.035550000000     0.600000000000   
Si     0.420750000000     0.136300000000     0.700000000000   
Si     0.000000000000     0.060450000000     0.600000000000   
Si     0.000000000000     0.110200000000     0.700000000000   
O      0.403850000000     0.403850000000     0.700000000000   
O      0.342600000000     0.407400000000     0.750000000000   
O      0.365100000000     0.464250000000     0.700000000000   
O      0.414700000000     0.000000000000     0.650000000000   
O      0.464450000000     0.464450000000     0.600000000000   
Si     0.363700000000     0.420750000000     0.700000000000   
Si     0.439550000000     0.000000000000     0.600000000000   
Si     0.389800000000     0.000000000000     0.700000000000   
O      0.096150000000     0.403850000000     0.700000000000   
O      0.092600000000     0.342600000000     0.750000000000   
O      0.035750000000     0.365100000000     0.700000000000   
O      0.000000000000     0.414700000000     0.650000000000   
O      0.035550000000     0.464450000000     0.600000000000   
Si     0.079250000000     0.363700000000     0.700000000000   
Si     0.000000000000     0.439550000000     0.600000000000   
Si     0.000000000000     0.389800000000     0.700000000000   
O      0.157400000000     0.407400000000     0.650000000000   
O      0.134900000000     0.464250000000     0.700000000000   
O      0.085300000000     0.000000000000     0.750000000000   
Si     0.136300000000     0.420750000000     0.700000000000   
O      0.092600000000     0.157400000000     0.650000000000   
O      0.035750000000     0.134900000000     0.700000000000   
O      0.000000000000     0.085300000000     0.750000000000   
Si     0.079250000000     0.136300000000     0.700000000000   
O      0.342600000000     0.092600000000     0.650000000000   
O      0.365100000000     0.035750000000     0.700000000000   
O      0.414700000000     0.000000000000     0.750000000000   
Si     0.363700000000     0.079250000000     0.700000000000   
O      0.407400000000     0.342600000000     0.650000000000   
O      0.464250000000     0.365100000000     0.700000000000   
O      0.000000000000     0.414700000000     0.750000000000   
Si     0.420750000000     0.363700000000     0.700000000000   
O      0.342600000000     0.407400000000     0.650000000000   
O      0.092600000000     0.342600000000     0.650000000000   
O      0.157400000000     0.092600000000     0.650000000000   
O      0.407400000000     0.157400000000     0.650000000000   
O      0.342600000000     0.092600000000     0.750000000000   
O      0.407400000000     0.342600000000     0.750000000000   
O      0.157400000000     0.407400000000     0.750000000000   
O      0.092600000000     0.157400000000     0.750000000000   
O      0.346150000000     0.346150000000     0.600000000000   
O      0.384900000000     0.285750000000     0.600000000000   
O      0.335300000000     0.250000000000     0.750000000000   
O      0.285550000000     0.285550000000     0.700000000000   
Si     0.386300000000     0.329250000000     0.600000000000   
Si     0.310450000000     0.250000000000     0.700000000000   
Si     0.360200000000     0.250000000000     0.600000000000   
O      0.153850000000     0.346150000000     0.600000000000   
O      0.214250000000     0.384900000000     0.600000000000   
O      0.250000000000     0.335300000000     0.750000000000   
O      0.214450000000     0.285550000000     0.700000000000   
Si     0.170750000000     0.386300000000     0.600000000000   
Si     0.250000000000     0.310450000000     0.700000000000   
Si     0.250000000000     0.360200000000     0.600000000000   
O      0.153850000000     0.153850000000     0.600000000000   
O      0.115100000000     0.214250000000     0.600000000000   
O      0.164700000000     0.250000000000     0.750000000000   
O      0.214450000000     0.214450000000     0.700000000000   
Si     0.113700000000     0.170750000000     0.600000000000   
Si     0.189550000000     0.250000000000     0.700000000000   
Si     0.139800000000     0.250000000000     0.600000000000   
O      0.346150000000     0.153850000000     0.600000000000   
O      0.285750000000     0.115100000000     0.600000000000   
O      0.250000000000     0.164700000000     0.750000000000   
O      0.285550000000     0.214450000000     0.700000000000   
Si     0.329250000000     0.113700000000     0.600000000000   
Si     0.250000000000     0.189550000000     0.700000000000   
Si     0.250000000000     0.139800000000     0.600000000000   
O      0.384900000000     0.214250000000     0.600000000000   
O      0.335300000000     0.250000000000     0.650000000000   
Si     0.386300000000     0.170750000000     0.600000000000   
O      0.285750000000     0.384900000000     0.600000000000   
O      0.250000000000     0.335300000000     0.650000000000   
Si     0.329250000000     0.386300000000     0.600000000000   
O      0.115100000000     0.285750000000     0.600000000000   
O      0.164700000000     0.250000000000     0.650000000000   
Si     0.113700000000     0.329250000000     0.600000000000   
O      0.214250000000     0.115100000000     0.600000000000   
O      0.250000000000     0.164700000000     0.650000000000   
Si     0.170750000000     0.113700000000     0.600000000000   
O      0.096150000000     0.096150000000     0.900000000000   
O      0.157400000000     0.092600000000     0.950000000000   
O      0.134900000000     0.035750000000     0.900000000000   
O      0.085300000000     0.000000000000     0.850000000000   
O      0.035550000000     0.035550000000     0.800000000000   
Si     0.136300000000     0.079250000000     0.900000000000   
Si     0.060450000000     0.000000000000     0.800000000000   
Si     0.110200000000     0.000000000000     0.900000000000   
O      0.403850000000     0.096150000000     0.900000000000   
O      0.407400000000     0.157400000000     0.950000000000   
O      0.464250000000     0.134900000000     0.900000000000   
O      0.000000000000     0.085300000000     0.850000000000   
O      0.464450000000     0.035550000000     0.800000000000   
Si     0.420750000000     0.136300000000     0.900000000000   
Si     0.000000000000     0.060450000000     0.800000000000   
Si     0.000000000000     0.110200000000     0.900000000000   
O      0.403850000000     0.403850000000     0.900000000000   
O      0.342600000000     0.407400000000     0.950000000000   
O      0.365100000000     0.464250000000     0.900000000000   
O      0.414700000000     0.000000000000     0.850000000000   
O      0.464450000000     0.464450000000     0.800000000000   
Si     0.363700000000     0.420750000000     0.900000000000   
Si     0.439550000000     0.000000000000     0.800000000000   
Si     0.389800000000     0.000000000000     0.900000000000   
O      0.096150000000     0.403850000000     0.900000000000   
O      0.092600000000     0.342600000000     0.950000000000   
O      0.035750000000     0.365100000000     0.900000000000   
O      0.000000000000     0.414700000000     0.850000000000   
O      0.035550000000     0.464450000000     0.800000000000   
Si     0.079250000000     0.363700000000     0.900000000000   
Si     0.000000000000     0.439550000000     0.800000000000   
Si     0.000000000000     0.389800000000     0.900000000000   
O      0.157400000000     0.407400000000     0.850000000000   
O      0.134900000000     0.464250000000     0.900000000000   
O      0.085300000000     0.000000000000     0.950000000000   
Si     0.136300000000     0.420750000000     0.900000000000   
O      0.092600000000     0.157400000000     0.850000000000   
O      0.035750000000     0.134900000000     0.900000000000   
O      0.000000000000     0.085300000000     0.950000000000   
Si     0.079250000000     0.136300000000     0.900000000000   
O      0.342600000000     0.092600000000     0.850000000000   
O      0.365100000000     0.035750000000     0.900000000000   
O      0.414700000000     0.000000000000     0.950000000000   
Si     0.363700000000     0.079250000000     0.900000000000   
O      0.407400000000     0.342600000000     0.850000000000   
O      0.464250000000     0.365100000000     0.900000000000   
O      0.000000000000     0.414700000000     0.950000000000   
Si     0.420750000000     0.363700000000     0.900000000000   
O      0.342600000000     0.407400000000     0.850000000000   
O      0.092600000000     0.342600000000     0.850000000000   
O      0.157400000000     0.092600000000     0.850000000000   
O      0.407400000000     0.157400000000     0.850000000000   
O      0.342600000000     0.092600000000     0.950000000000   
O      0.407400000000     0.342600000000     0.950000000000   
O      0.157400000000     0.407400000000     0.950000000000   
O      0.092600000000     0.157400000000     0.950000000000   
O      0.346150000000     0.346150000000     0.800000000000   
O      0.384900000000     0.285750000000     0.800000000000   
O      0.335300000000     0.250000000000     0.950000000000   
O      0.285550000000     0.285550000000     0.900000000000   
Si     0.386300000000     0.329250000000     0.800000000000   
Si     0.310450000000     0.250000000000     0.900000000000   
Si     0.360200000000     0.250000000000     0.800000000000   
O      0.153850000000     0.346150000000     0.800000000000   
O      0.214250000000     0.384900000000     0.800000000000   
O      0.250000000000     0.335300000000     0.950000000000   
O      0.214450000000     0.285550000000     0.900000000000   
Si     0.170750000000     0.386300000000     0.800000000000   
Si     0.250000000000     0.310450000000     0.900000000000   
Si     0.250000000000     0.360200000000     0.800000000000   
O      0.153850000000     0.153850000000     0.800000000000   
O      0.115100000000     0.214250000000     0.800000000000   
O      0.164700000000     0.250000000000     0.950000000000   
O      0.214450000000     0.214450000000     0.900000000000   
Si     0.113700000000     0.170750000000     0.800000000000   
Si     0.189550000000     0.250000000000     0.900000000000   
Si     0.139800000000     0.250000000000     0.800000000000   
O      0.346150000000     0.153850000000     0.800000000000   
O      0.285750000000     0.115100000000     0.800000000000   
O      0.250000000000     0.164700000000     0.950000000000   
O      0.285550000000     0.214450000000     0.900000000000   
Si     0.329250000000     0.113700000000     0.800000000000   
Si     0.250000000000     0.189550000000     0.900000000000   
Si     0.250000000000     0.139800000000     0.800000000000   
O      0.384900000000     0.214250000000     0.800000000000   
O      0.335300000000     0.250000000000     0.850000000000   
Si     0.386300000000     0.170750000000     0.800000000000   
O      0.285750000000     0.384900000000     0.800000000000   