%BLOCK LATTICE_CART
ang    # angstrom units
  18.180690000000    0.000000000000     0.000000000000   
  0.000000000000     31.840590000000    0.000000000000   
  0.000000000000     0.000000000000     12.640680000000  
%ENDBLOCK LATTICE_CART

%BLOCK POSITIONS_FRAC
Si     0.207600000000     0.238880000000     0.126216666667   
Si     0.071055000000     0.176360000000     0.099590000000   
Si     0.103750000000     0.048660000000     0.040970000000   
Si     0.457975000000     0.115640000000     0.041263333333   
Si     0.153660000000     0.070690000000     0.103796666667   
Si     0.150720000000     0.163810000000     0.125563333333   
Si     0.099060000000     0.047630000000     0.166666666667   
Si     0.043410000000     0.123860000000     0.166666666667   
Si     0.206045000000     0.000000000000     0.125590000000   
O      0.182870000000     0.197760000000     0.213880000000   
O      0.000000000000     0.107790000000     0.052963333333   
O      0.250000000000     0.000000000000     0.121286666667   
O      0.046510000000     0.246510000000     0.166666666667   
O      0.250000000000     0.228050000000     0.118046666667   
O      0.440995000000     0.154370000000     0.063163333333   
O      0.123525000000     0.054980000000     0.131903333333   
O      0.115200000000     0.176930000000     0.230606666667   
O      0.305020000000     0.000000000000     0.166666666667   
O      0.097775000000     0.000000000000     0.282380000000   
O      0.456855000000     0.127340000000     0.000000000000   
O      0.385230000000     0.052590000000     0.000000000000   
O      0.055810000000     0.223820000000     0.100593333333   
O      0.433740000000     0.074160000000     0.048216666667   
O      0.139895000000     0.161810000000     0.166666666667   
O      0.310505000000     0.041190000000     0.106696666667   
O      0.363610000000     0.067790000000     0.064780000000   
O      0.335105000000     0.118470000000     0.112563333333   
O      0.053905000000     0.150330000000     0.131996666667   
O      0.084125000000     0.000000000000     0.166666666667   
O      0.435130000000     0.079670000000     0.166666666667   
O      0.000000000000     0.114230000000     0.166666666667   
Si     0.292400000000     0.761120000000     0.126216666667   
Si     0.428945000000     0.823640000000     0.099590000000   
Si     0.396250000000     0.951340000000     0.040970000000   
Si     0.042025000000     0.884360000000     0.041263333333   
Si     0.346340000000     0.929310000000     0.103796666667   
Si     0.349280000000     0.836190000000     0.125563333333   
Si     0.400940000000     0.952370000000     0.166666666667   
Si     0.456590000000     0.876140000000     0.166666666667   
Si     0.293955000000     0.000000000000     0.125590000000   
O      0.317130000000     0.802240000000     0.213880000000   
O      0.000000000000     0.892210000000     0.052963333333   
O      0.453490000000     0.753490000000     0.166666666667   
O      0.250000000000     0.771950000000     0.118046666667   
O      0.059005000000     0.845630000000     0.063163333333   
O      0.376475000000     0.945020000000     0.131903333333   
O      0.384800000000     0.823070000000     0.230606666667   
O      0.194980000000     0.000000000000     0.166666666667   
O      0.402225000000     0.000000000000     0.282380000000   
O      0.043145000000     0.872660000000     0.000000000000   
O      0.114770000000     0.947410000000     0.000000000000   
O      0.444190000000     0.776180000000     0.100593333333   
O      0.066260000000     0.925840000000     0.048216666667   
O      0.360105000000     0.838190000000     0.166666666667   
O      0.189495000000     0.958810000000     0.106696666667   
O      0.136390000000     0.932210000000     0.064780000000   
O      0.164895000000     0.881530000000     0.112563333333   
O      0.446095000000     0.849670000000     0.131996666667   
O      0.415875000000     0.000000000000     0.166666666667   
O      0.064870000000     0.920330000000     0.166666666667   
O      0.000000000000     0.885770000000     0.166666666667   
Si     0.207600000000     0.761120000000     0.207116666667   
Si     0.071055000000     0.823640000000     0.233743333333   
Si     0.103750000000     0.951340000000     0.292363333333   
Si     0.457975000000     0.884360000000     0.292070000000   
Si     0.153660000000     0.929310000000     0.229536666667   
Si     0.150720000000     0.836190000000     0.207770000000   
Si     0.099060000000     0.952370000000     0.166666666667   
Si     0.043410000000     0.876140000000     0.166666666667   
Si     0.206045000000     0.000000000000     0.207743333333   
O      0.182870000000     0.802240000000     0.119453333333   
O      0.000000000000     0.892210000000     0.280370000000   
O      0.250000000000     0.000000000000     0.212046666667   
O      0.046510000000     0.753490000000     0.166666666667   
O      0.250000000000     0.771950000000     0.215286666667   
O      0.440995000000     0.845630000000     0.270170000000   
O      0.123525000000     0.945020000000     0.201430000000   
O      0.115200000000     0.823070000000     0.102726666667   
O      0.097775000000     0.000000000000     0.050953333333   
O      0.456855000000     0.872660000000     0.000000000000   
O      0.385230000000     0.947410000000     0.000000000000   
O      0.055810000000     0.776180000000     0.232740000000   
O      0.433740000000     0.925840000000     0.285116666667   
O      0.139895000000     0.838190000000     0.166666666667   
O      0.310505000000     0.958810000000     0.226636666667   
O      0.363610000000     0.932210000000     0.268553333333   
O      0.335105000000     0.881530000000     0.220770000000   
O      0.053905000000     0.849670000000     0.201336666667   
O      0.435130000000     0.920330000000     0.166666666667   
Si     0.292400000000     0.238880000000     0.207116666667   
Si     0.428945000000     0.176360000000     0.233743333333   
Si     0.396250000000     0.048660000000     0.292363333333   
Si     0.042025000000     0.115640000000     0.292070000000   
Si     0.346340000000     0.070690000000     0.229536666667   
Si     0.349280000000     0.163810000000     0.207770000000   
Si     0.400940000000     0.047630000000     0.166666666667   
Si     0.456590000000     0.123860000000     0.166666666667   
Si     0.293955000000     0.000000000000     0.207743333333   
O      0.317130000000     0.197760000000     0.119453333333   
O      0.000000000000     0.107790000000     0.280370000000   
O      0.453490000000     0.246510000000     0.166666666667   
O      0.250000000000     0.228050000000     0.215286666667   
O      0.059005000000     0.154370000000     0.270170000000   
O      0.376475000000     0.054980000000     0.201430000000   
O      0.384800000000     0.176930000000     0.102726666667   
O      0.402225000000     0.000000000000     0.050953333333   
O      0.043145000000     0.127340000000     0.000000000000   
O      0.114770000000     0.052590000000     0.000000000000   
O      0.444190000000     0.223820000000     0.232740000000   
O      0.066260000000     0.074160000000     0.285116666667   
O      0.360105000000     0.161810000000     0.166666666667   
O      0.189495000000     0.041190000000     0.226636666667   
O      0.136390000000     0.067790000000     0.268553333333   
O      0.164895000000     0.118470000000     0.220770000000   
O      0.446095000000     0.150330000000     0.201336666667   
O      0.064870000000     0.079670000000     0.166666666667   
Si     0.292400000000     0.761120000000     0.207116666667   
Si     0.428945000000     0.823640000000     0.233743333333   
Si     0.396250000000     0.951340000000     0.292363333333   
Si     0.042025000000     0.884360000000     0.292070000000   
Si     0.346340000000     0.929310000000     0.229536666667   
Si     0.349280000000     0.836190000000     0.207770000000   
O      0.317130000000     0.802240000000     0.119453333333   
O      0.059005000000     0.845630000000     0.270170000000   
O      0.376475000000     0.945020000000     0.201430000000   
O      0.384800000000     0.823070000000     0.102726666667   
O      0.444190000000     0.776180000000     0.232740000000   
O      0.066260000000     0.925840000000     0.285116666667   
O      0.189495000000     0.958810000000     0.226636666667   
O      0.136390000000     0.932210000000     0.268553333333   
O      0.164895000000     0.881530000000     0.220770000000   
O      0.446095000000     0.849670000000     0.201336666667   
Si     0.207600000000     0.238880000000     0.207116666667   
Si     0.071055000000     0.176360000000     0.233743333333   
Si     0.103750000000     0.048660000000     0.292363333333   
Si     0.457975000000     0.115640000000     0.292070000000   
Si     0.153660000000     0.070690000000     0.229536666667   
Si     0.150720000000     0.163810000000     0.207770000000   
O      0.182870000000     0.197760000000     0.119453333333   
O      0.440995000000     0.154370000000     0.270170000000   
O      0.123525000000     0.054980000000     0.201430000000   
O      0.115200000000     0.176930000000     0.102726666667   
O      0.055810000000     0.223820000000     0.232740000000   
O      0.433740000000     0.074160000000     0.285116666667   
O      0.310505000000     0.041190000000     0.226636666667   
O      0.363610000000     0.067790000000     0.268553333333   
O      0.335105000000     0.118470000000     0.220770000000   
O      0.053905000000     0.150330000000     0.201336666667   
Si     0.292400000000     0.238880000000     0.126216666667   
Si     0.428945000000     0.176360000000     0.099590000000   
Si     0.396250000000     0.048660000000     0.040970000000   
Si     0.042025000000     0.115640000000     0.041263333333   
Si     0.346340000000     0.070690000000     0.103796666667   
Si     0.349280000000     0.163810000000     0.125563333333   
O      0.317130000000     0.197760000000     0.213880000000   
O      0.059005000000     0.154370000000     0.063163333333   
O      0.376475000000     0.054980000000     0.131903333333   
O      0.384800000000     0.176930000000     0.230606666667   
O      0.444190000000     0.223820000000     0.100593333333   
O      0.066260000000     0.074160000000     0.048216666667   
O      0.189495000000     0.041190000000     0.106696666667   
O      0.136390000000     0.067790000000     0.064780000000   
O      0.164895000000     0.118470000000     0.112563333333   
O      0.446095000000     0.150330000000     0.131996666667   
Si     0.207600000000     0.761120000000     0.126216666667   
Si     0.071055000000     0.823640000000     0.099590000000   
Si     0.103750000000     0.951340000000     0.040970000000   
Si     0.457975000000     0.884360000000     0.041263333333   
Si     0.153660000000     0.929310000000     0.103796666667   
Si     0.150720000000     0.836190000000     0.125563333333   
O      0.182870000000     0.802240000000     0.213880000000   
O      0.440995000000     0.845630000000     0.063163333333   
O      0.123525000000     0.945020000000     0.131903333333   
O      0.115200000000     0.823070000000     0.230606666667   
O      0.055810000000     0.776180000000     0.100593333333   
O      0.433740000000     0.925840000000     0.048216666667   
O      0.310505000000     0.958810000000     0.106696666667   
O      0.363610000000     0.932210000000     0.064780000000   
O      0.335105000000     0.881530000000     0.112563333333   
O      0.053905000000     0.849670000000     0.131996666667   
Si     0.457600000000     0.738880000000     0.126216666667   
Si     0.321055000000     0.676360000000     0.099590000000   
Si     0.353750000000     0.548660000000     0.040970000000   
Si     0.207975000000     0.615640000000     0.041263333333   
Si     0.403660000000     0.570690000000     0.103796666667   
Si     0.400720000000     0.663810000000     0.125563333333   
Si     0.349060000000     0.547630000000     0.166666666667   
Si     0.293410000000     0.623860000000     0.166666666667   
Si     0.456045000000     0.500000000000     0.125590000000   
O      0.432870000000     0.697760000000     0.213880000000   
O      0.250000000000     0.607790000000     0.052963333333   
O      0.000000000000     0.500000000000     0.121286666667   
O      0.296510000000     0.746510000000     0.166666666667   
O      0.000000000000     0.728050000000     0.118046666667   
O      0.190995000000     0.654370000000     0.063163333333   
O      0.373525000000     0.554980000000     0.131903333333   
O      0.365200000000     0.676930000000     0.230606666667   
O      0.055020000000     0.500000000000     0.166666666667   
O      0.347775000000     0.500000000000     0.282380000000   
O      0.206855000000     0.627340000000     0.000000000000   
O      0.135230000000     0.552590000000     0.000000000000   
O      0.305810000000     0.723820000000     0.100593333333   
O      0.183740000000     0.574160000000     0.048216666667   
O      0.389895000000     0.661810000000     0.166666666667   
O      0.060505000000     0.541190000000     0.106696666667   
O      0.113610000000     0.567790000000     0.064780000000   
O      0.085105000000     0.618470000000     0.112563333333   
O      0.303905000000     0.650330000000     0.131996666667   
O      0.334125000000     0.500000000000     0.166666666667   
O      0.185130000000     0.579670000000     0.166666666667   
O      0.250000000000     0.614230000000     0.166666666667   
Si     0.042400000000     0.261120000000     0.126216666667   
Si     0.178945000000     0.323640000000     0.099590000000   
Si     0.146250000000     0.451340000000     0.040970000000   
Si     0.292025000000     0.384360000000     0.041263333333   
Si     0.096340000000     0.429310000000     0.103796666667   
Si     0.099280000000     0.336190000000     0.125563333333   
Si     0.150940000000     0.452370000000     0.166666666667   
Si     0.206590000000     0.376140000000     0.166666666667   
Si     0.043955000000     0.500000000000     0.125590000000   
O      0.067130000000     0.302240000000     0.213880000000   
O      0.250000000000     0.392210000000     0.052963333333   
O      0.203490000000     0.253490000000     0.166666666667   
O      0.000000000000     0.271950000000     0.118046666667   
O      0.309005000000     0.345630000000     0.063163333333   
O      0.126475000000     0.445020000000     0.131903333333   
O      0.134800000000     0.323070000000     0.230606666667   
O      0.444980000000     0.500000000000     0.166666666667   
O      0.152225000000     0.500000000000     0.282380000000   
O      0.293145000000     0.372660000000     0.000000000000   
O      0.364770000000     0.447410000000     0.000000000000   
O      0.194190000000     0.276180000000     0.100593333333   
O      0.316260000000     0.425840000000     0.048216666667   
O      0.110105000000     0.338190000000     0.166666666667   
O      0.439495000000     0.458810000000     0.106696666667   
O      0.386390000000     0.432210000000     0.064780000000   
O      0.414895000000     0.381530000000     0.112563333333   
O      0.196095000000     0.349670000000     0.131996666667   
O      0.165875000000     0.500000000000     0.166666666667   
O      0.314870000000     0.420330000000     0.166666666667   
O      0.250000000000     0.385770000000     0.166666666667   
Si     0.457600000000     0.261120000000     0.207116666667   
Si     0.321055000000     0.323640000000     0.233743333333   
Si     0.353750000000     0.451340000000     0.292363333333   
Si     0.207975000000     0.384360000000     0.292070000000   
Si     0.403660000000     0.429310000000     0.229536666667   
Si     0.400720000000     0.336190000000     0.207770000000   
Si     0.349060000000     0.452370000000     0.166666666667   
Si     0.293410000000     0.376140000000     0.166666666667   
Si     0.456045000000     0.500000000000     0.207743333333   
O      0.432870000000     0.302240000000     0.119453333333   
O      0.250000000000     0.392210000000     0.280370000000   
O      0.000000000000     0.500000000000     0.212046666667   
O      0.296510000000     0.253490000000     0.166666666667   
O      0.000000000000     0.271950000000     0.215286666667   
O      0.190995000000     0.345630000000     0.270170000000   
O      0.373525000000     0.445020000000     0.201430000000   
O      0.365200000000     0.323070000000     0.102726666667   
O      0.347775000000     0.500000000000     0.050953333333   
O      0.206855000000     0.372660000000     0.000000000000   
O      0.135230000000     0.447410000000     0.000000000000   
O      0.305810000000     0.276180000000     0.232740000000   
O      0.183740000000     0.425840000000     0.285116666667   
O      0.389895000000     0.338190000000     0.166666666667   
O      0.060505000000     0.458810000000     0.226636666667   
O      0.113610000000     0.432210000000     0.268553333333   
O      0.085105000000     0.381530000000     0.220770000000   
O      0.303905000000     0.349670000000     0.201336666667   
O      0.185130000000     0.420330000000     0.166666666667   
Si     0.042400000000     0.738880000000     0.207116666667   
Si     0.178945000000     0.676360000000     0.233743333333   
Si     0.146250000000     0.548660000000     0.292363333333   
Si     0.292025000000     0.615640000000     0.292070000000   
Si     0.096340000000     0.570690000000     0.229536666667   
Si     0.099280000000     0.663810000000     0.207770000000   
Si     0.150940000000     0.547630000000     0.166666666667   
Si     0.206590000000     0.623860000000     0.166666666667   
Si     0.043955000000     0.500000000000     0.207743333333   
O      0.067130000000     0.697760000000     0.119453333333   
O      0.250000000000     0.607790000000     0.280370000000   
O      0.203490000000     0.746510000000     0.166666666667   
O      0.000000000000     0.728050000000     0.215286666667   
O      0.309005000000     0.654370000000     0.270170000000   
O      0.126475000000     0.554980000000     0.201430000000   
O      0.134800000000     0.676930000000     0.102726666667   
O      0.152225000000     0.500000000000     0.050953333333   
O      0.293145000000     0.627340000000     0.000000000000   
O      0.364770000000     0.552590000000     0.000000000000   
O      0.194190000000     0.723820000000     0.232740000000   
O      0.316260000000     0.574160000000     0.285116666667   
O      0.110105000000     0.661810000000     0.166666666667   
O      0.439495000000     0.541190000000     0.226636666667   
O      0.386390000000     0.567790000000     0.268553333333   
O      0.414895000000     0.618470000000     0.220770000000   
O      0.196095000000     0.650330000000     0.201336666667   
O      0.314870000000     0.579670000000     0.166666666667   
Si     0.042400000000     0.261120000000     0.207116666667   
Si     0.178945000000     0.323640000000     0.233743333333   
Si     0.146250000000     0.451340000000     0.292363333333   
Si     0.292025000000     0.384360000000     0.292070000000   
Si     0.096340000000     0.429310000000     0.229536666667   
Si     0.099280000000     0.336190000000     0.207770000000   
O      0.067130000000     0.302240000000     0.119453333333   
O      0.309005000000     0.345630000000     0.270170000000   
O      0.126475000000     0.445020000000     0.201430000000   
O      0.134800000000     0.323070000000     0.102726666667   
O      0.194190000000     0.276180000000     0.232740000000   
O      0.316260000000     0.425840000000     0.285116666667   
O      0.439495000000     0.458810000000     0.226636666667   
O      0.386390000000     0.432210000000     0.268553333333   
O      0.414895000000     0.381530000000     0.220770000000   
O      0.196095000000     0.349670000000     0.201336666667   
Si     0.457600000000     0.738880000000     0.207116666667   
Si     0.321055000000     0.676360000000     0.233743333333   
Si     0.353750000000     0.548660000000     0.292363333333   
Si     0.207975000000     0.615640000000     0.292070000000   
Si     0.403660000000     0.570690000000     0.229536666667   
Si     0.400720000000     0.663810000000     0.207770000000   
O      0.432870000000     0.697760000000     0.119453333333   
O      0.190995000000     0.654370000000     0.270170000000   
O      0.373525000000     0.554980000000     0.201430000000   
O      0.365200000000     0.676930000000     0.102726666667   
O      0.305810000000     0.723820000000     0.232740000000   
O      0.183740000000     0.574160000000     0.285116666667   
O      0.060505000000     0.541190000000     0.226636666667   
O      0.113610000000     0.567790000000     0.268553333333   
O      0.085105000000     0.618470000000     0.220770000000   
O      0.303905000000     0.650330000000     0.201336666667   
Si     0.042400000000     0.738880000000     0.126216666667   
Si     0.178945000000     0.676360000000     0.099590000000   
Si     0.146250000000     0.548660000000     0.040970000000   
Si     0.292025000000     0.615640000000     0.041263333333   
Si     0.096340000000     0.570690000000     0.103796666667   
Si     0.099280000000     0.663810000000     0.125563333333   
O      0.067130000000     0.697760000000     0.213880000000   
O      0.309005000000     0.654370000000     0.063163333333   
O      0.126475000000     0.554980000000     0.131903333333   
O      0.134800000000     0.676930000000     0.230606666667   
O      0.194190000000     0.723820000000     0.100593333333   
O      0.316260000000     0.574160000000     0.048216666667   
O      0.439495000000     0.541190000000     0.106696666667   
O      0.386390000000     0.567790000000     0.064780000000   
O      0.414895000000     0.618470000000     0.112563333333   
O      0.196095000000     0.650330000000     0.131996666667   
Si     0.457600000000     0.261120000000     0.126216666667   
Si     0.321055000000     0.323640000000     0.099590000000   
Si     0.353750000000     0.451340000000     0.040970000000   
Si     0.207975000000     0.384360000000     0.041263333333   
Si     0.403660000000     0.429310000000     0.103796666667   
Si     0.400720000000     0.336190000000     0.125563333333   
O      0.432870000000     0.302240000000     0.213880000000   
O      0.190995000000     0.345630000000     0.063163333333   
O      0.373525000000     0.445020000000     0.131903333333   
O      0.365200000000     0.323070000000     0.230606666667   
O      0.305810000000     0.276180000000     0.100593333333   
O      0.183740000000     0.425840000000     0.048216666667   
O      0.060505000000     0.458810000000     0.106696666667   
O      0.113610000000     0.432210000000     0.064780000000   
O      0.085105000000     0.381530000000     0.112563333333   
O      0.303905000000     0.349670000000     0.131996666667   
Si     0.207600000000     0.238880000000     0.459550000000   
Si     0.071055000000     0.176360000000     0.432923333333   
Si     0.103750000000     0.048660000000     0.374303333333   
Si     0.457975000000     0.115640000000     0.374596666667   
Si     0.153660000000     0.070690000000     0.437130000000   
Si     0.150720000000     0.163810000000     0.458896666667   
Si     0.099060000000     0.047630000000     0.500000000000   
Si     0.043410000000     0.123860000000     0.500000000000   
Si     0.206045000000     0.000000000000     0.458923333333   
O      0.182870000000     0.197760000000     0.547213333333   
O      0.000000000000     0.107790000000     0.386296666667   
O      0.250000000000     0.000000000000     0.454620000000   
O      0.046510000000     0.246510000000     0.500000000000   
O      0.250000000000     0.228050000000     0.451380000000   
O      0.440995000000     0.154370000000     0.396496666667   
O      0.123525000000     0.054980000000     0.465236666667   
O      0.115200000000     0.176930000000     0.563940000000   
O      0.305020000000     0.000000000000     0.500000000000   
O      0.097775000000     0.000000000000     0.615713333333   
O      0.456855000000     0.127340000000     0.333333333333   
O      0.385230000000     0.052590000000     0.333333333333   
O      0.055810000000     0.223820000000     0.433926666667   
O      0.433740000000     0.074160000000     0.381550000000   
O      0.139895000000     0.161810000000     0.500000000000   
O      0.310505000000     0.041190000000     0.440030000000   
O      0.363610000000     0.067790000000     0.398113333333   
O      0.335105000000     0.118470000000     0.445896666667   
O      0.053905000000     0.150330000000     0.465330000000   
O      0.084125000000     0.000000000000     0.500000000000   
O      0.435130000000     0.079670000000     0.500000000000   
O      0.000000000000     0.114230000000     0.500000000000   
Si     0.292400000000     0.761120000000     0.459550000000   
Si     0.428945000000     0.823640000000     0.432923333333   
Si     0.396250000000     0.951340000000     0.374303333333   
Si     0.042025000000     0.884360000000     0.374596666667   
Si     0.346340000000     0.929310000000     0.437130000000   
Si     0.349280000000     0.836190000000     0.458896666667   
Si     0.400940000000     0.952370000000     0.500000000000   
Si     0.456590000000     0.876140000000     0.500000000000   
Si     0.293955000000     0.000000000000     0.458923333333   
O      0.317130000000     0.802240000000     0.547213333333   
O      0.000000000000     0.892210000000     0.386296666667   
O      0.453490000000     0.753490000000     0.500000000000   
O      0.250000000000     0.771950000000     0.451380000000   
O      0.059005000000     0.845630000000     0.396496666667   
O      0.376475000000     0.945020000000     0.465236666667   
O      0.384800000000     0.823070000000     0.563940000000   
O      0.194980000000     0.000000000000     0.500000000000   
O      0.402225000000     0.000000000000     0.615713333333   
O      0.043145000000     0.872660000000     0.333333333333   
O      0.114770000000     0.947410000000     0.333333333333   
O      0.444190000000     0.776180000000     0.433926666667   
O      0.066260000000     0.925840000000     0.381550000000   
O      0.360105000000     0.838190000000     0.500000000000   
O      0.189495000000     0.958810000000     0.440030000000   
O      0.136390000000     0.932210000000     0.398113333333   
O      0.164895000000     0.881530000000     0.445896666667   
O      0.446095000000     0.849670000000     0.465330000000   
O      0.415875000000     0.000000000000     0.500000000000   
O      0.064870000000     0.920330000000     0.500000000000   
O      0.000000000000     0.885770000000     0.500000000000   
Si     0.207600000000     0.761120000000     0.540450000000   
Si     0.071055000000     0.823640000000     0.567076666667   
Si     0.103750000000     0.951340000000     0.625696666667   
Si     0.457975000000     0.884360000000     0.625403333333   
Si     0.153660000000     0.929310000000     0.562870000000   
Si     0.150720000000     0.836190000000     0.541103333333   
Si     0.099060000000     0.952370000000     0.500000000000   
Si     0.043410000000     0.876140000000     0.500000000000   
Si     0.206045000000     0.000000000000     0.541076666667   
O      0.182870000000     0.802240000000     0.452786666667   
O      0.000000000000     0.892210000000     0.613703333333   
O      0.250000000000     0.000000000000     0.545380000000   
O      0.046510000000     0.753490000000     0.500000000000   
O      0.250000000000     0.771950000000     0.548620000000   
O      0.440995000000     0.845630000000     0.603503333333   
O      0.123525000000     0.945020000000     0.534763333333   
O      0.115200000000     0.823070000000     0.436060000000   
O      0.097775000000     0.000000000000     0.384286666667   
O      0.456855000000     0.872660000000     0.333333333333   
O      0.385230000000     0.947410000000     0.333333333333   
O      0.055810000000     0.776180000000     0.566073333333   
O      0.433740000000     0.925840000000     0.618450000000   
O      0.139895000000     0.838190000000     0.500000000000   
O      0.310505000000     0.958810000000     0.559970000000   
O      0.363610000000     0.932210000000     0.601886666667   
O      0.335105000000     0.881530000000     0.554103333333   
O      0.053905000000     0.849670000000     0.534670000000   
O      0.435130000000     0.920330000000     0.500000000000   
Si     0.292400000000     0.238880000000     0.540450000000   
Si     0.428945000000     0.176360000000     0.567076666667   
Si     0.396250000000     0.048660000000     0.625696666667   
Si     0.042025000000     0.115640000000     0.625403333333   
Si     0.346340000000     0.070690000000     0.562870000000   
Si     0.349280000000     0.163810000000     0.541103333333   
Si     0.400940000000     0.047630000000     0.500000000000   
Si     0.456590000000     0.123860000000     0.500000000000   
Si     0.293955000000     0.000000000000     0.541076666667   
O      0.317130000000     0.197760000000     0.452786666667   
O      0.000000000000     0.107790000000     0.613703333333   
O      0.453490000000     0.246510000000     0.500000000000   
O      0.250000000000     0.228050000000     0.548620000000   
O      0.059005000000     0.154370000000     0.603503333333   
O      0.376475000000     0.054980000000     0.534763333333   
O      0.384800000000     0.176930000000     0.436060000000   
O      0.402225000000     0.000000000000     0.384286666667   
O      0.043145000000     0.127340000000     0.333333333333   
O      0.114770000000     0.052590000000     0.333333333333   
O      0.444190000000     0.223820000000     0.566073333333   
O      0.066260000000     0.074160000000     0.618450000000   
O      0.360105000000     0.161810000000     0.500000000000   
O      0.189495000000     0.041190000000     0.559970000000   