%BLOCK LATTICE_CART
ang    # angstrom units
  5.256000000000     0.000000000000     0.000000000000   
  0.000000000000     7.450000000000     0.000000000000   
  0.000000000000     0.000000000000     8.159000000000   
%ENDBLOCK LATTICE_CART

%BLOCK POSITIONS_FRAC
O      0.000000000000     0.065300000000     0.000000000000   
O      0.050000000000     0.000000000000     0.036375000000   
O      0.050000000000     0.080875000000     0.068200000000   
O      0.100000000000     0.125000000000     0.125000000000   
Si     0.050000000000     0.052775000000     0.026050000000   
Si     0.050000000000     0.125000000000     0.096625000000   
O      0.100000000000     0.184700000000     0.000000000000   
O      0.050000000000     0.169125000000     0.068200000000   
O      0.000000000000     0.125000000000     0.125000000000   
Si     0.050000000000     0.197225000000     0.026050000000   
O      0.150000000000     0.000000000000     0.213625000000   
O      0.150000000000     0.169125000000     0.181800000000   
Si     0.150000000000     0.197225000000     0.223950000000   
Si     0.150000000000     0.125000000000     0.153375000000   
O      0.150000000000     0.080875000000     0.181800000000   
Si     0.150000000000     0.052775000000     0.223950000000   
O      0.000000000000     0.184700000000     0.000000000000   
O      0.100000000000     0.065300000000     0.000000000000   
O      0.000000000000     0.065300000000     0.250000000000   
O      0.050000000000     0.000000000000     0.286375000000   
O      0.050000000000     0.080875000000     0.318200000000   
O      0.100000000000     0.125000000000     0.375000000000   
Si     0.050000000000     0.052775000000     0.276050000000   
Si     0.050000000000     0.125000000000     0.346625000000   
O      0.100000000000     0.184700000000     0.250000000000   
O      0.050000000000     0.169125000000     0.318200000000   
O      0.000000000000     0.125000000000     0.375000000000   
Si     0.050000000000     0.197225000000     0.276050000000   
O      0.150000000000     0.000000000000     0.463625000000   
O      0.150000000000     0.169125000000     0.431800000000   
Si     0.150000000000     0.197225000000     0.473950000000   
Si     0.150000000000     0.125000000000     0.403375000000   
O      0.150000000000     0.080875000000     0.431800000000   
Si     0.150000000000     0.052775000000     0.473950000000   
O      0.000000000000     0.184700000000     0.250000000000   
O      0.100000000000     0.065300000000     0.250000000000   
O      0.000000000000     0.065300000000     0.500000000000   
O      0.050000000000     0.000000000000     0.536375000000   
O      0.050000000000     0.080875000000     0.568200000000   
O      0.100000000000     0.125000000000     0.625000000000   
Si     0.050000000000     0.052775000000     0.526050000000   
Si     0.050000000000     0.125000000000     0.596625000000   
O      0.100000000000     0.184700000000     0.500000000000   
O      0.050000000000     0.169125000000     0.568200000000   
O      0.000000000000     0.125000000000     0.625000000000   
Si     0.050000000000     0.197225000000     0.526050000000   
O      0.150000000000     0.000000000000     0.713625000000   
O      0.150000000000     0.169125000000     0.681800000000   
Si     0.150000000000     0.197225000000     0.723950000000   
Si     0.150000000000     0.125000000000     0.653375000000   
O      0.150000000000     0.080875000000     0.681800000000   
Si     0.150000000000     0.052775000000     0.723950000000   
O      0.000000000000     0.184700000000     0.500000000000   
O      0.100000000000     0.065300000000     0.500000000000   
O      0.000000000000     0.065300000000     0.750000000000   
O      0.050000000000     0.000000000000     0.786375000000   
O      0.050000000000     0.080875000000     0.818200000000   
O      0.100000000000     0.125000000000     0.875000000000   
Si     0.050000000000     0.052775000000     0.776050000000   
Si     0.050000000000     0.125000000000     0.846625000000   
O      0.100000000000     0.184700000000     0.750000000000   
O      0.050000000000     0.169125000000     0.818200000000   
O      0.000000000000     0.125000000000     0.875000000000   
Si     0.050000000000     0.197225000000     0.776050000000   
O      0.150000000000     0.000000000000     0.963625000000   
O      0.150000000000     0.169125000000     0.931800000000   
Si     0.150000000000     0.197225000000     0.973950000000   
Si     0.150000000000     0.125000000000     0.903375000000   
O      0.150000000000     0.080875000000     0.931800000000   
Si     0.150000000000     0.052775000000     0.973950000000   
O      0.000000000000     0.184700000000     0.750000000000   
O      0.100000000000     0.065300000000     0.750000000000   
O      0.000000000000     0.315300000000     0.000000000000   
O      0.050000000000     0.250000000000     0.036375000000   
O      0.050000000000     0.330875000000     0.068200000000   
O      0.100000000000     0.375000000000     0.125000000000   
Si     0.050000000000     0.302775000000     0.026050000000   
Si     0.050000000000     0.375000000000     0.096625000000   
O      0.100000000000     0.434700000000     0.000000000000   
O      0.050000000000     0.419125000000     0.068200000000   
O      0.000000000000     0.375000000000     0.125000000000   
Si     0.050000000000     0.447225000000     0.026050000000   
O      0.150000000000     0.250000000000     0.213625000000   
O      0.150000000000     0.419125000000     0.181800000000   
Si     0.150000000000     0.447225000000     0.223950000000   
Si     0.150000000000     0.375000000000     0.153375000000   
O      0.150000000000     0.330875000000     0.181800000000   
Si     0.150000000000     0.302775000000     0.223950000000   
O      0.000000000000     0.434700000000     0.000000000000   
O      0.100000000000     0.315300000000     0.000000000000   
O      0.000000000000     0.315300000000     0.250000000000   
O      0.050000000000     0.250000000000     0.286375000000   
O      0.050000000000     0.330875000000     0.318200000000   
O      0.100000000000     0.375000000000     0.375000000000   
Si     0.050000000000     0.302775000000     0.276050000000   
Si     0.050000000000     0.375000000000     0.346625000000   
O      0.100000000000     0.434700000000     0.250000000000   
O      0.050000000000     0.419125000000     0.318200000000   
O      0.000000000000     0.375000000000     0.375000000000   
Si     0.050000000000     0.447225000000     0.276050000000   
O      0.150000000000     0.250000000000     0.463625000000   
O      0.150000000000     0.419125000000     0.431800000000   
Si     0.150000000000     0.447225000000     0.473950000000   
Si     0.150000000000     0.375000000000     0.403375000000   
O      0.150000000000     0.330875000000     0.431800000000   
Si     0.150000000000     0.302775000000     0.473950000000   
O      0.000000000000     0.434700000000     0.250000000000   
O      0.100000000000     0.315300000000     0.250000000000   
O      0.000000000000     0.315300000000     0.500000000000   
O      0.050000000000     0.250000000000     0.536375000000   
O      0.050000000000     0.330875000000     0.568200000000   
O      0.100000000000     0.375000000000     0.625000000000   
Si     0.050000000000     0.302775000000     0.526050000000   
Si     0.050000000000     0.375000000000     0.596625000000   
O      0.100000000000     0.434700000000     0.500000000000   
O      0.050000000000     0.419125000000     0.568200000000   
O      0.000000000000     0.375000000000     0.625000000000   
Si     0.050000000000     0.447225000000     0.526050000000   
O      0.150000000000     0.250000000000     0.713625000000   
O      0.150000000000     0.419125000000     0.681800000000   
Si     0.150000000000     0.447225000000     0.723950000000   
Si     0.150000000000     0.375000000000     0.653375000000   
O      0.150000000000     0.330875000000     0.681800000000   
Si     0.150000000000     0.302775000000     0.723950000000   
O      0.000000000000     0.434700000000     0.500000000000   
O      0.100000000000     0.315300000000     0.500000000000   
O      0.000000000000     0.315300000000     0.750000000000   
O      0.050000000000     0.250000000000     0.786375000000   
O      0.050000000000     0.330875000000     0.818200000000   
O      0.100000000000     0.375000000000     0.875000000000   
Si     0.050000000000     0.302775000000     0.776050000000   
Si     0.050000000000     0.375000000000     0.846625000000   
O      0.100000000000     0.434700000000     0.750000000000   
O      0.050000000000     0.419125000000     0.818200000000   
O      0.000000000000     0.375000000000     0.875000000000   
Si     0.050000000000     0.447225000000     0.776050000000   
O      0.150000000000     0.250000000000     0.963625000000   
O      0.150000000000     0.419125000000     0.931800000000   
Si     0.150000000000     0.447225000000     0.973950000000   
Si     0.150000000000     0.375000000000     0.903375000000   
O      0.150000000000     0.330875000000     0.931800000000   
Si     0.150000000000     0.302775000000     0.973950000000   
O      0.000000000000     0.434700000000     0.750000000000   
O      0.100000000000     0.315300000000     0.750000000000   
O      0.000000000000     0.565300000000     0.000000000000   
O      0.050000000000     0.500000000000     0.036375000000   
O      0.050000000000     0.580875000000     0.068200000000   
O      0.100000000000     0.625000000000     0.125000000000   
Si     0.050000000000     0.552775000000     0.026050000000   
Si     0.050000000000     0.625000000000     0.096625000000   
O      0.100000000000     0.684700000000     0.000000000000   
O      0.050000000000     0.669125000000     0.068200000000   
O      0.000000000000     0.625000000000     0.125000000000   
Si     0.050000000000     0.697225000000     0.026050000000   
O      0.150000000000     0.500000000000     0.213625000000   
O      0.150000000000     0.669125000000     0.181800000000   
Si     0.150000000000     0.697225000000     0.223950000000   
Si     0.150000000000     0.625000000000     0.153375000000   
O      0.150000000000     0.580875000000     0.181800000000   
Si     0.150000000000     0.552775000000     0.223950000000   
O      0.000000000000     0.684700000000     0.000000000000   
O      0.100000000000     0.565300000000     0.000000000000   
O      0.000000000000     0.565300000000     0.250000000000   
O      0.050000000000     0.500000000000     0.286375000000   
O      0.050000000000     0.580875000000     0.318200000000   
O      0.100000000000     0.625000000000     0.375000000000   
Si     0.050000000000     0.552775000000     0.276050000000   
Si     0.050000000000     0.625000000000     0.346625000000   
O      0.100000000000     0.684700000000     0.250000000000   
O      0.050000000000     0.669125000000     0.318200000000   
O      0.000000000000     0.625000000000     0.375000000000   
Si     0.050000000000     0.697225000000     0.276050000000   
O      0.150000000000     0.500000000000     0.463625000000   
O      0.150000000000     0.669125000000     0.431800000000   
Si     0.150000000000     0.697225000000     0.473950000000   
Si     0.150000000000     0.625000000000     0.403375000000   
O      0.150000000000     0.580875000000     0.431800000000   
Si     0.150000000000     0.552775000000     0.473950000000   
O      0.000000000000     0.684700000000     0.250000000000   
O      0.100000000000     0.565300000000     0.250000000000   
O      0.000000000000     0.565300000000     0.500000000000   
O      0.050000000000     0.500000000000     0.536375000000   
O      0.050000000000     0.580875000000     0.568200000000   
O      0.100000000000     0.625000000000     0.625000000000   
Si     0.050000000000     0.552775000000     0.526050000000   
Si     0.050000000000     0.625000000000     0.596625000000   
O      0.100000000000     0.684700000000     0.500000000000   
O      0.050000000000     0.669125000000     0.568200000000   
O      0.000000000000     0.625000000000     0.625000000000   
Si     0.050000000000     0.697225000000     0.526050000000   
O      0.150000000000     0.500000000000     0.713625000000   
O      0.150000000000     0.669125000000     0.681800000000   
Si     0.150000000000     0.697225000000     0.723950000000   
Si     0.150000000000     0.625000000000     0.653375000000   
O      0.150000000000     0.580875000000     0.681800000000   
Si     0.150000000000     0.552775000000     0.723950000000   
O      0.000000000000     0.684700000000     0.500000000000   
O      0.100000000000     0.565300000000     0.500000000000   
O      0.000000000000     0.565300000000     0.750000000000   
O      0.050000000000     0.500000000000     0.786375000000   
O      0.050000000000     0.580875000000     0.818200000000   
O      0.100000000000     0.625000000000     0.875000000000   
Si     0.050000000000     0.552775000000     0.776050000000   
Si     0.050000000000     0.625000000000     0.846625000000   
O      0.100000000000     0.684700000000     0.750000000000   
O      0.050000000000     0.669125000000     0.818200000000   
O      0.000000000000     0.625000000000     0.875000000000   
Si     0.050000000000     0.697225000000     0.776050000000   
O      0.150000000000     0.500000000000     0.963625000000   
O      0.150000000000     0.669125000000     0.931800000000   
Si     0.150000000000     0.697225000000     0.973950000000   
Si     0.150000000000     0.625000000000     0.903375000000   
O      0.150000000000     0.580875000000     0.931800000000   
Si     0.150000000000     0.552775000000     0.973950000000   
O      0.000000000000     0.684700000000     0.750000000000   
O      0.100000000000     0.565300000000     0.750000000000   
O      0.000000000000     0.815300000000     0.000000000000   
O      0.050000000000     0.750000000000     0.036375000000   
O      0.050000000000     0.830875000000     0.068200000000   
O      0.100000000000     0.875000000000     0.125000000000   
Si     0.050000000000     0.802775000000     0.026050000000   
Si     0.050000000000     0.875000000000     0.096625000000   
O      0.100000000000     0.934700000000     0.000000000000   
O      0.050000000000     0.919125000000     0.068200000000   
O      0.000000000000     0.875000000000     0.125000000000   
Si     0.050000000000     0.947225000000     0.026050000000   
O      0.150000000000     0.750000000000     0.213625000000   
O      0.150000000000     0.919125000000     0.181800000000   
Si     0.150000000000     0.947225000000     0.223950000000   
Si     0.150000000000     0.875000000000     0.153375000000   
O      0.150000000000     0.830875000000     0.181800000000   
Si     0.150000000000     0.802775000000     0.223950000000   
O      0.000000000000     0.934700000000     0.000000000000   
O      0.100000000000     0.815300000000     0.000000000000   
O      0.000000000000     0.815300000000     0.250000000000   
O      0.050000000000     0.750000000000     0.286375000000   
O      0.050000000000     0.830875000000     0.318200000000   
O      0.100000000000     0.875000000000     0.375000000000   
Si     0.050000000000     0.802775000000     0.276050000000   
Si     0.050000000000     0.875000000000     0.346625000000   
O      0.100000000000     0.934700000000     0.250000000000   
O      0.050000000000     0.919125000000     0.318200000000   
O      0.000000000000     0.875000000000     0.375000000000   
Si     0.050000000000     0.947225000000     0.276050000000   
O      0.150000000000     0.750000000000     0.463625000000   
O      0.150000000000     0.919125000000     0.431800000000   
Si     0.150000000000     0.947225000000     0.473950000000   
Si     0.150000000000     0.875000000000     0.403375000000   
O      0.150000000000     0.830875000000     0.431800000000   
Si     0.150000000000     0.802775000000     0.473950000000   
O      0.000000000000     0.934700000000     0.250000000000   
O      0.100000000000     0.815300000000     0.250000000000   
O      0.000000000000     0.815300000000     0.500000000000   
O      0.050000000000     0.750000000000     0.536375000000   
O      0.050000000000     0.830875000000     0.568200000000   
O      0.100000000000     0.875000000000     0.625000000000   
Si     0.050000000000     0.802775000000     0.526050000000   
Si     0.050000000000     0.875000000000     0.596625000000   
O      0.100000000000     0.934700000000     0.500000000000   
O      0.050000000000     0.919125000000     0.568200000000   
O      0.000000000000     0.875000000000     0.625000000000   
Si     0.050000000000     0.947225000000     0.526050000000   
O      0.150000000000     0.750000000000     0.713625000000   
O      0.150000000000     0.919125000000     0.681800000000   
Si     0.150000000000     0.947225000000     0.723950000000   
Si     0.150000000000     0.875000000000     0.653375000000   
O      0.150000000000     0.830875000000     0.681800000000   
Si     0.150000000000     0.802775000000     0.723950000000   
O      0.000000000000     0.934700000000     0.500000000000   
O      0.100000000000     0.815300000000     0.500000000000   
O      0.000000000000     0.815300000000     0.750000000000   
O      0.050000000000     0.750000000000     0.786375000000   
O      0.050000000000     0.830875000000     0.818200000000   
O      0.100000000000     0.875000000000     0.875000000000   
Si     0.050000000000     0.802775000000     0.776050000000   
Si     0.050000000000     0.875000000000     0.846625000000   
O      0.100000000000     0.934700000000     0.750000000000   
O      0.050000000000     0.919125000000     0.818200000000   
O      0.000000000000     0.875000000000     0.875000000000   
Si     0.050000000000     0.947225000000     0.776050000000   
O      0.150000000000     0.750000000000     0.963625000000   
O      0.150000000000     0.919125000000     0.931800000000   
Si     0.150000000000     0.947225000000     0.973950000000   
Si     0.150000000000     0.875000000000     0.903375000000   
O      0.150000000000     0.830875000000     0.931800000000   
Si     0.150000000000     0.802775000000     0.973950000000   
O      0.000000000000     0.934700000000     0.750000000000   
O      0.100000000000     0.815300000000     0.750000000000   
O      0.200000000000     0.065300000000     0.000000000000   
O      0.250000000000     0.000000000000     0.036375000000   
O      0.250000000000     0.080875000000     0.068200000000   
O      0.300000000000     0.125000000000     0.125000000000   
Si     0.250000000000     0.052775000000     0.026050000000   
Si     0.250000000000     0.125000000000     0.096625000000   
O      0.300000000000     0.184700000000     0.000000000000   
O      0.250000000000     0.169125000000     0.068200000000   
O      0.200000000000     0.125000000000     0.125000000000   
Si     0.250000000000     0.197225000000     0.026050000000   
O      0.350000000000     0.000000000000     0.213625000000   
O      0.350000000000     0.169125000000     0.181800000000   
Si     0.350000000000     0.197225000000     0.223950000000   
Si     0.350000000000     0.125000000000     0.153375000000   
O      0.350000000000     0.080875000000     0.181800000000   
Si     0.350000000000     0.052775000000     0.223950000000   
O      0.200000000000     0.184700000000     0.000000000000   
O      0.300000000000     0.065300000000     0.000000000000   
O      0.200000000000     0.065300000000     0.250000000000   
O      0.250000000000     0.000000000000     0.286375000000   
O      0.250000000000     0.080875000000     0.318200000000   
O      0.300000000000     0.125000000000     0.375000000000   
Si     0.250000000000     0.052775000000     0.276050000000   
Si     0.250000000000     0.125000000000     0.346625000000   
O      0.300000000000     0.184700000000     0.250000000000   
O      0.250000000000     0.169125000000     0.318200000000   
O      0.200000000000     0.125000000000     0.375000000000   
Si     0.250000000000     0.197225000000     0.276050000000   
O      0.350000000000     0.000000000000     0.463625000000   
O      0.350000000000     0.169125000000     0.431800000000   
Si     0.350000000000     0.197225000000     0.473950000000   
Si     0.350000000000     0.125000000000     0.403375000000   
O      0.350000000000     0.080875000000     0.431800000000   
Si     0.350000000000     0.052775000000     0.473950000000   
O      0.200000000000     0.184700000000     0.250000000000   
O      0.300000000000     0.065300000000     0.250000000000   
O      0.200000000000     0.065300000000     0.500000000000   
O      0.250000000000     0.000000000000     0.536375000000   
O      0.250000000000     0.080875000000     0.568200000000   
O      0.300000000000     0.125000000000     0.625000000000   
Si     0.250000000000     0.052775000000     0.526050000000   
Si     0.250000000000     0.125000000000     0.596625000000   
O      0.300000000000     0.184700000000     0.500000000000   
O      0.250000000000     0.169125000000     0.568200000000   
O      0.200000000000     0.125000000000     0.625000000000   
Si     0.250000000000     0.197225000000     0.526050000000   
O      0.350000000000     0.000000000000     0.713625000000   
O      0.350000000000     0.169125000000     0.681800000000   
Si     0.350000000000     0.197225000000     0.723950000000   
Si     0.350000000000     0.125000000000     0.653375000000   
O      0.350000000000     0.080875000000     0.681800000000   
Si     0.350000000000     0.052775000000     0.723950000000   
O      0.200000000000     0.184700000000     0.500000000000   
O      0.300000000000     0.065300000000     0.500000000000   
O      0.200000000000     0.065300000000     0.750000000000   
O      0.250000000000     0.000000000000     0.786375000000   
O      0.250000000000     0.080875000000     0.818200000000   
O      0.300000000000     0.125000000000     0.875000000000   
Si     0.250000000000     0.052775000000     0.776050000000   
Si     0.250000000000     0.125000000000     0.846625000000   
O      0.300000000000     0.184700000000     0.750000000000   
O      0.250000000000     0.169125000000     0.818200000000   
O      0.200000000000     0.125000000000     0.875000000000   
Si     0.250000000000     0.197225000000     0.776050000000   
O      0.350000000000     0.000000000000     0.963625000000   
O      0.350000000000     0.169125000000     0.931800000000   
Si     0.350000000000     0.197225000000     0.973950000000   
Si     0.350000000000     0.125000000000     0.903375000000   
O      0.350000000000     0.080875000000     0.931800000000   
Si     0.350000000000     0.052775000000     0.973950000000   
O      0.200000000000     0.184700000000     0.750000000000   
O      0.300000000000     0.065300000000     0.750000000000   
O      0.200000000000     0.315300000000     0.000000000000   
O      0.250000000000     0.250000000000     0.036375000000   
O      0.250000000000     0.330875000000     0.068200000000   
O      0.300000000000     0.375000000000     0.125000000000   
Si     0.250000000000     0.302775000000     0.026050000000   
Si     0.250000000000     0.375000000000     0.096625000000   
O      0.300000000000     0.434700000000     0.000000000000   
O      0.250000000000     0.419125000000     0.068200000000   
O      0.200000000000     0.375000000000     0.125000000000   
Si     0.250000000000     0.447225000000     0.026050000000   
O      0.350000000000     0.250000000000     0.213625000000   
O      0.350000000000     0.419125000000     0.181800000000   
Si     0.350000000000     0.447225000000     0.223950000000   
Si     0.350000000000     0.375000000000     0.153375000000   
O      0.350000000000     0.330875000000     0.181800000000   
Si     0.350000000000     0.302775000000     0.223950000000   
O      0.200000000000     0.434700000000     0.000000000000   
O      0.300000000000     0.315300000000     0.000000000000   
O      0.200000000000     0.315300000000     0.250000000000   
O      0.250000000000     0.250000000000     0.286375000000   
O      0.250000000000     0.330875000000     0.318200000000   
O      0.300000000000     0.375000000000     0.375000000000   
Si     0.250000000000     0.302775000000     0.276050000000   
Si     0.250000000000     0.375000000000     0.346625000000   
O      0.300000000000     0.434700000000     0.250000000000   
O      0.250000000000     0.419125000000     0.318200000000   
O      0.200000000000     0.375000000000     0.375000000000   
Si     0.250000000000     0.447225000000     0.276050000000   
O      0.350000000000     0.250000000000     0.463625000000   
O      0.350000000000     0.419125000000     0.431800000000   
Si     0.350000000000     0.447225000000     0.473950000000   
Si     0.350000000000     0.375000000000     0.403375000000   
O      0.350000000000     0.330875000000     0.431800000000   
Si     0.350000000000     0.302775000000     0.473950000000   
O      0.200000000000     0.434700000000     0.250000000000   
O      0.300000000000     0.315300000000     0.250000000000   
O      0.200000000000     0.315300000000     0.500000000000   
O      0.250000000000     0.250000000000     0.536375000000   
O      0.250000000000     0.330875000000     0.568200000000   
O      0.300000000000     0.375000000000     0.625000000000   
Si     0.250000000000     0.302775000000     0.526050000000   
Si     0.250000000000     0.375000000000     0.596625000000   
O      0.300000000000     0.434700000000     0.500000000000   
O      0.250000000000     0.419125000000     0.568200000000   
O      0.200000000000     0.375000000000     0.625000000000   
Si     0.250000000000     0.447225000000     0.526050000000   
O      0.350000000000     0.250000000000     0.713625000000   
O      0.350000000000     0.419125000000     0.681800000000   
Si     0.350000000000     0.447225000000     0.723950000000   
Si     0.350000000000     0.375000000000     0.653375000000   
O      0.350000000000     0.330875000000     0.681800000000   
Si     0.350000000000     0.302775000000     0.723950000000   
O      0.200000000000     0.434700000000     0.500000000000   
O      0.300000000000     0.315300000000     0.500000000000   
O      0.200000000000     0.315300000000     0.750000000000   
O      0.250000000000     0.250000000000     0.786375000000   
O      0.250000000000     0.330875000000     0.818200000000   
O      0.300000000000     0.375000000000     0.875000000000   
Si     0.250000000000     0.302775000000     0.776050000000   
Si     0.250000000000     0.375000000000     0.846625000000   
O      0.300000000000     0.434700000000     0.750000000000   
O      0.250000000000     0.419125000000     0.818200000000   
O      0.200000000000     0.375000000000     0.875000000000   
Si     0.250000000000     0.447225000000     0.776050000000   
O      0.350000000000     0.250000000000     0.963625000000   
O      0.350000000000     0.419125000000     0.931800000000   
Si     0.350000000000     0.447225000000     0.973950000000   
Si     0.350000000000     0.375000000000     0.903375000000   
O      0.350000000000     0.330875000000     0.931800000000   
Si     0.350000000000     0.302775000000     0.973950000000   
O      0.200000000000     0.434700000000     0.750000000000   
O      0.300000000000     0.315300000000     0.750000000000   
O      0.200000000000     0.565300000000     0.000000000000   
O      0.250000000000     0.500000000000     0.036375000000   
O      0.250000000000     0.580875000000     0.068200000000   
O      0.300000000000     0.625000000000     0.125000000000   
Si     0.250000000000     0.552775000000     0.026050000000   
Si     0.250000000000     0.625000000000     0.096625000000   
O      0.300000000000     0.684700000000     0.000000000000   
O      0.250000000000     0.669125000000     0.068200000000   
O      0.200000000000     0.625000000000     0.125000000000   
Si     0.250000000000     0.697225000000     0.026050000000   
O      0.350000000000     0.500000000000     0.213625000000   
O      0.350000000000     0.669125000000     0.181800000000   
Si     0.350000000000     0.697225000000     0.223950000000   
Si     0.350000000000     0.625000000000     0.153375000000   
O      0.350000000000     0.580875000000     0.181800000000   
Si     0.350000000000     0.552775000000     0.223950000000   
O      0.200000000000     0.684700000000     0.000000000000   
O      0.300000000000     0.565300000000     0.000000000000   
O      0.200000000000     0.565300000000     0.250000000000   
O      0.250000000000     0.500000000000     0.286375000000   
O      0.250000000000     0.580875000000     0.318200000000   
O      0.300000000000     0.625000000000     0.375000000000   
Si     0.250000000000     0.552775000000     0.276050000000   
Si     0.250000000000     0.625000000000     0.346625000000   
O      0.300000000000     0.684700000000     0.250000000000   
O      0.250000000000     0.669125000000     0.318200000000   
O      0.200000000000     0.625000000000     0.375000000000   
Si     0.250000000000     0.697225000000     0.276050000000   
O      0.350000000000     0.500000000000     0.463625000000   
O      0.350000000000     0.669125000000     0.431800000000   
Si     0.350000000000     0.697225000000     0.473950000000   
Si     0.350000000000     0.625000000000     0.403375000000   
O      0.350000000000     0.580875000000     0.431800000000   
Si     0.350000000000     0.552775000000     0.473950000000   
O      0.200000000000     0.684700000000     0.250000000000   
O      0.300000000000     0.565300000000     0.250000000000   
O      0.200000000000     0.565300000000     0.500000000000   
O      0.250000000000     0.500000000000     0.536375000000   
O      0.250000000000     0.580875000000     0.568200000000   
O      0.300000000000     0.625000000000     0.625000000000   