%BLOCK LATTICE_CART
ang    # angstrom units
  20.762200000000    0.000000000000     0.000000000000   
  0.000000000000     11.706740000000    0.000000000000   
 -5.363183675157     0.000000000000     9.656749297700   
%ENDBLOCK LATTICE_CART

%BLOCK POSITIONS_FRAC
Si     0.418195000000     0.218050000000     0.122346666667   
Si     0.356405000000     0.192713333333     0.143826666667   
Si     0.413715000000     0.195660000000     0.250783333333   
Si     0.457400000000     0.247536666667     0.220600000000   
Si     0.364785000000     0.109186666667     0.122070000000   
O      0.379780000000     0.212543333333     0.122530000000   
O      0.427455000000     0.180230000000     0.102476666667   
O      0.450540000000     0.225970000000     0.174203333333   
O      0.414960000000     0.253810000000     0.090163333333   
O      0.379295000000     0.193990000000     0.199306666667   
O      0.317985000000     0.214940000000     0.126226666667   
O      0.347885000000     0.149130000000     0.126790000000   
O      0.446865000000     0.219443333333     0.250806666667   
O      0.401180000000     0.216176666667     0.284403333333   
O      0.250000000000     0.093103333333     0.250000000000   
O      0.375000000000     0.083333333333     0.166666666667   
Si     0.081805000000     0.218050000000     0.044320000000   
Si     0.143595000000     0.192713333333     0.022840000000   
Si     0.086285000000     0.195660000000     0.249216666667   
Si     0.042600000000     0.247536666667     0.279400000000   
Si     0.135215000000     0.109186666667     0.044596666667   
O      0.120220000000     0.212543333333     0.044136666667   
O      0.072545000000     0.180230000000     0.064190000000   
O      0.049460000000     0.225970000000     0.325796666667   
O      0.085040000000     0.253810000000     0.076503333333   
O      0.120705000000     0.193990000000     0.300693333333   
O      0.182015000000     0.214940000000     0.040440000000   
O      0.152115000000     0.149130000000     0.039876666667   
O      0.053135000000     0.219443333333     0.249193333333   
O      0.098820000000     0.216176666667     0.215596666667   
O      0.125000000000     0.083333333333     0.000000000000   
Si     0.081805000000     0.115283333333     0.210986666667   
Si     0.143595000000     0.140620000000     0.189506666667   
Si     0.086285000000     0.137673333333     0.082550000000   
Si     0.042600000000     0.085796666667     0.112733333333   
Si     0.135215000000     0.224146666667     0.211263333333   
O      0.120220000000     0.120790000000     0.210803333333   
O      0.072545000000     0.153103333333     0.230856666667   
O      0.049460000000     0.107363333333     0.159130000000   
O      0.085040000000     0.079523333333     0.243170000000   
O      0.120705000000     0.139343333333     0.134026666667   
O      0.182015000000     0.118393333333     0.207106666667   
O      0.152115000000     0.184203333333     0.206543333333   
O      0.053135000000     0.113890000000     0.082526666667   
O      0.098820000000     0.117156666667     0.048930000000   
O      0.250000000000     0.240230000000     0.083333333333   
O      0.125000000000     0.250000000000     0.166666666667   
Si     0.418195000000     0.115283333333     0.289013333333   
Si     0.356405000000     0.140620000000     0.310493333333   
Si     0.413715000000     0.137673333333     0.084116666667   
Si     0.457400000000     0.085796666667     0.053933333333   
Si     0.364785000000     0.224146666667     0.288736666667   
O      0.379780000000     0.120790000000     0.289196666667   
O      0.427455000000     0.153103333333     0.269143333333   
O      0.450540000000     0.107363333333     0.007536666667   
O      0.414960000000     0.079523333333     0.256830000000   
O      0.379295000000     0.139343333333     0.032640000000   
O      0.317985000000     0.118393333333     0.292893333333   
O      0.347885000000     0.184203333333     0.293456666667   
O      0.446865000000     0.113890000000     0.084140000000   
O      0.401180000000     0.117156666667     0.117736666667   
O      0.375000000000     0.250000000000     0.000000000000   
Si     0.168195000000     0.051383333333     0.122346666667   
Si     0.106405000000     0.026046666667     0.143826666667   
Si     0.163715000000     0.028993333333     0.250783333333   
Si     0.207400000000     0.080870000000     0.220600000000   
Si     0.114785000000     0.275853333333     0.122070000000   
O      0.129780000000     0.045876666667     0.122530000000   
O      0.177455000000     0.013563333333     0.102476666667   
O      0.200540000000     0.059303333333     0.174203333333   
O      0.164960000000     0.087143333333     0.090163333333   
O      0.129295000000     0.027323333333     0.199306666667   
O      0.067985000000     0.048273333333     0.126226666667   
O      0.097885000000     0.315796666667     0.126790000000   
O      0.196865000000     0.052776666667     0.250806666667   
O      0.151180000000     0.049510000000     0.284403333333   
O      0.000000000000     0.259770000000     0.250000000000   
Si     0.331805000000     0.051383333333     0.044320000000   
Si     0.393595000000     0.026046666667     0.022840000000   
Si     0.336285000000     0.028993333333     0.249216666667   
Si     0.292600000000     0.080870000000     0.279400000000   
Si     0.385215000000     0.275853333333     0.044596666667   
O      0.370220000000     0.045876666667     0.044136666667   
O      0.322545000000     0.013563333333     0.064190000000   
O      0.299460000000     0.059303333333     0.325796666667   
O      0.335040000000     0.087143333333     0.076503333333   
O      0.370705000000     0.027323333333     0.300693333333   
O      0.432015000000     0.048273333333     0.040440000000   
O      0.402115000000     0.315796666667     0.039876666667   
O      0.303135000000     0.052776666667     0.249193333333   
O      0.348820000000     0.049510000000     0.215596666667   
Si     0.331805000000     0.281950000000     0.210986666667   
Si     0.393595000000     0.307286666667     0.189506666667   
Si     0.336285000000     0.304340000000     0.082550000000   
Si     0.292600000000     0.252463333333     0.112733333333   
Si     0.385215000000     0.057480000000     0.211263333333   
O      0.370220000000     0.287456666667     0.210803333333   
O      0.322545000000     0.319770000000     0.230856666667   
O      0.299460000000     0.274030000000     0.159130000000   
O      0.335040000000     0.246190000000     0.243170000000   
O      0.370705000000     0.306010000000     0.134026666667   
O      0.432015000000     0.285060000000     0.207106666667   
O      0.402115000000     0.017536666667     0.206543333333   
O      0.303135000000     0.280556666667     0.082526666667   
O      0.348820000000     0.283823333333     0.048930000000   
O      0.000000000000     0.073563333333     0.083333333333   
Si     0.168195000000     0.281950000000     0.289013333333   
Si     0.106405000000     0.307286666667     0.310493333333   
Si     0.163715000000     0.304340000000     0.084116666667   
Si     0.207400000000     0.252463333333     0.053933333333   
Si     0.114785000000     0.057480000000     0.288736666667   
O      0.129780000000     0.287456666667     0.289196666667   
O      0.177455000000     0.319770000000     0.269143333333   
O      0.200540000000     0.274030000000     0.007536666667   
O      0.164960000000     0.246190000000     0.256830000000   
O      0.129295000000     0.306010000000     0.032640000000   
O      0.067985000000     0.285060000000     0.292893333333   
O      0.097885000000     0.017536666667     0.293456666667   
O      0.196865000000     0.280556666667     0.084140000000   
O      0.151180000000     0.283823333333     0.117736666667   
Si     0.418195000000     0.218050000000     0.455680000000   
Si     0.356405000000     0.192713333333     0.477160000000   
Si     0.413715000000     0.195660000000     0.584116666667   
Si     0.457400000000     0.247536666667     0.553933333333   
Si     0.364785000000     0.109186666667     0.455403333333   
O      0.379780000000     0.212543333333     0.455863333333   
O      0.427455000000     0.180230000000     0.435810000000   
O      0.450540000000     0.225970000000     0.507536666667   
O      0.414960000000     0.253810000000     0.423496666667   
O      0.379295000000     0.193990000000     0.532640000000   
O      0.317985000000     0.214940000000     0.459560000000   
O      0.347885000000     0.149130000000     0.460123333333   
O      0.446865000000     0.219443333333     0.584140000000   
O      0.401180000000     0.216176666667     0.617736666667   
O      0.250000000000     0.093103333333     0.583333333333   
O      0.375000000000     0.083333333333     0.500000000000   
Si     0.081805000000     0.218050000000     0.377653333333   
Si     0.143595000000     0.192713333333     0.356173333333   
Si     0.086285000000     0.195660000000     0.582550000000   
Si     0.042600000000     0.247536666667     0.612733333333   
Si     0.135215000000     0.109186666667     0.377930000000   
O      0.120220000000     0.212543333333     0.377470000000   
O      0.072545000000     0.180230000000     0.397523333333   
O      0.049460000000     0.225970000000     0.659130000000   
O      0.085040000000     0.253810000000     0.409836666667   
O      0.120705000000     0.193990000000     0.634026666667   
O      0.182015000000     0.214940000000     0.373773333333   
O      0.152115000000     0.149130000000     0.373210000000   
O      0.053135000000     0.219443333333     0.582526666667   
O      0.098820000000     0.216176666667     0.548930000000   
O      0.125000000000     0.083333333333     0.333333333333   
Si     0.081805000000     0.115283333333     0.544320000000   
Si     0.143595000000     0.140620000000     0.522840000000   
Si     0.086285000000     0.137673333333     0.415883333333   
Si     0.042600000000     0.085796666667     0.446066666667   
Si     0.135215000000     0.224146666667     0.544596666667   
O      0.120220000000     0.120790000000     0.544136666667   
O      0.072545000000     0.153103333333     0.564190000000   
O      0.049460000000     0.107363333333     0.492463333333   
O      0.085040000000     0.079523333333     0.576503333333   
O      0.120705000000     0.139343333333     0.467360000000   
O      0.182015000000     0.118393333333     0.540440000000   
O      0.152115000000     0.184203333333     0.539876666667   
O      0.053135000000     0.113890000000     0.415860000000   
O      0.098820000000     0.117156666667     0.382263333333   
O      0.250000000000     0.240230000000     0.416666666667   
O      0.125000000000     0.250000000000     0.500000000000   
Si     0.418195000000     0.115283333333     0.622346666667   
Si     0.356405000000     0.140620000000     0.643826666667   
Si     0.413715000000     0.137673333333     0.417450000000   
Si     0.457400000000     0.085796666667     0.387266666667   
Si     0.364785000000     0.224146666667     0.622070000000   
O      0.379780000000     0.120790000000     0.622530000000   
O      0.427455000000     0.153103333333     0.602476666667   
O      0.450540000000     0.107363333333     0.340870000000   
O      0.414960000000     0.079523333333     0.590163333333   
O      0.379295000000     0.139343333333     0.365973333333   
O      0.317985000000     0.118393333333     0.626226666667   
O      0.347885000000     0.184203333333     0.626790000000   
O      0.446865000000     0.113890000000     0.417473333333   
O      0.401180000000     0.117156666667     0.451070000000   
O      0.375000000000     0.250000000000     0.333333333333   
Si     0.168195000000     0.051383333333     0.455680000000   
Si     0.106405000000     0.026046666667     0.477160000000   
Si     0.163715000000     0.028993333333     0.584116666667   
Si     0.207400000000     0.080870000000     0.553933333333   
Si     0.114785000000     0.275853333333     0.455403333333   
O      0.129780000000     0.045876666667     0.455863333333   
O      0.177455000000     0.013563333333     0.435810000000   
O      0.200540000000     0.059303333333     0.507536666667   
O      0.164960000000     0.087143333333     0.423496666667   
O      0.129295000000     0.027323333333     0.532640000000   
O      0.067985000000     0.048273333333     0.459560000000   
O      0.097885000000     0.315796666667     0.460123333333   
O      0.196865000000     0.052776666667     0.584140000000   
O      0.151180000000     0.049510000000     0.617736666667   
O      0.000000000000     0.259770000000     0.583333333333   
Si     0.331805000000     0.051383333333     0.377653333333   
Si     0.393595000000     0.026046666667     0.356173333333   
Si     0.336285000000     0.028993333333     0.582550000000   
Si     0.292600000000     0.080870000000     0.612733333333   
Si     0.385215000000     0.275853333333     0.377930000000   
O      0.370220000000     0.045876666667     0.377470000000   
O      0.322545000000     0.013563333333     0.397523333333   
O      0.299460000000     0.059303333333     0.659130000000   
O      0.335040000000     0.087143333333     0.409836666667   
O      0.370705000000     0.027323333333     0.634026666667   
O      0.432015000000     0.048273333333     0.373773333333   
O      0.402115000000     0.315796666667     0.373210000000   
O      0.303135000000     0.052776666667     0.582526666667   
O      0.348820000000     0.049510000000     0.548930000000   
Si     0.331805000000     0.281950000000     0.544320000000   
Si     0.393595000000     0.307286666667     0.522840000000   
Si     0.336285000000     0.304340000000     0.415883333333   
Si     0.292600000000     0.252463333333     0.446066666667   
Si     0.385215000000     0.057480000000     0.544596666667   
O      0.370220000000     0.287456666667     0.544136666667   
O      0.322545000000     0.319770000000     0.564190000000   
O      0.299460000000     0.274030000000     0.492463333333   
O      0.335040000000     0.246190000000     0.576503333333   
O      0.370705000000     0.306010000000     0.467360000000   
O      0.432015000000     0.285060000000     0.540440000000   
O      0.402115000000     0.017536666667     0.539876666667   
O      0.303135000000     0.280556666667     0.415860000000   
O      0.348820000000     0.283823333333     0.382263333333   
O      0.000000000000     0.073563333333     0.416666666667   
Si     0.168195000000     0.281950000000     0.622346666667   
Si     0.106405000000     0.307286666667     0.643826666667   
Si     0.163715000000     0.304340000000     0.417450000000   
Si     0.207400000000     0.252463333333     0.387266666667   
Si     0.114785000000     0.057480000000     0.622070000000   
O      0.129780000000     0.287456666667     0.622530000000   
O      0.177455000000     0.319770000000     0.602476666667   
O      0.200540000000     0.274030000000     0.340870000000   
O      0.164960000000     0.246190000000     0.590163333333   
O      0.129295000000     0.306010000000     0.365973333333   
O      0.067985000000     0.285060000000     0.626226666667   
O      0.097885000000     0.017536666667     0.626790000000   
O      0.196865000000     0.280556666667     0.417473333333   
O      0.151180000000     0.283823333333     0.451070000000   
Si     0.418195000000     0.218050000000     0.789013333333   
Si     0.356405000000     0.192713333333     0.810493333333   
Si     0.413715000000     0.195660000000     0.917450000000   
Si     0.457400000000     0.247536666667     0.887266666667   
Si     0.364785000000     0.109186666667     0.788736666667   
O      0.379780000000     0.212543333333     0.789196666667   
O      0.427455000000     0.180230000000     0.769143333333   
O      0.450540000000     0.225970000000     0.840870000000   
O      0.414960000000     0.253810000000     0.756830000000   
O      0.379295000000     0.193990000000     0.865973333333   
O      0.317985000000     0.214940000000     0.792893333333   
O      0.347885000000     0.149130000000     0.793456666667   
O      0.446865000000     0.219443333333     0.917473333333   
O      0.401180000000     0.216176666667     0.951070000000   
O      0.250000000000     0.093103333333     0.916666666667   
O      0.375000000000     0.083333333333     0.833333333333   
Si     0.081805000000     0.218050000000     0.710986666667   
Si     0.143595000000     0.192713333333     0.689506666667   
Si     0.086285000000     0.195660000000     0.915883333333   
Si     0.042600000000     0.247536666667     0.946066666667   
Si     0.135215000000     0.109186666667     0.711263333333   
O      0.120220000000     0.212543333333     0.710803333333   
O      0.072545000000     0.180230000000     0.730856666667   
O      0.049460000000     0.225970000000     0.992463333333   
O      0.085040000000     0.253810000000     0.743170000000   
O      0.120705000000     0.193990000000     0.967360000000   
O      0.182015000000     0.214940000000     0.707106666667   
O      0.152115000000     0.149130000000     0.706543333333   
O      0.053135000000     0.219443333333     0.915860000000   
O      0.098820000000     0.216176666667     0.882263333333   
O      0.125000000000     0.083333333333     0.666666666667   
Si     0.081805000000     0.115283333333     0.877653333333   
Si     0.143595000000     0.140620000000     0.856173333333   
Si     0.086285000000     0.137673333333     0.749216666667   
Si     0.042600000000     0.085796666667     0.779400000000   
Si     0.135215000000     0.224146666667     0.877930000000   
O      0.120220000000     0.120790000000     0.877470000000   
O      0.072545000000     0.153103333333     0.897523333333   
O      0.049460000000     0.107363333333     0.825796666667   
O      0.085040000000     0.079523333333     0.909836666667   
O      0.120705000000     0.139343333333     0.800693333333   
O      0.182015000000     0.118393333333     0.873773333333   
O      0.152115000000     0.184203333333     0.873210000000   
O      0.053135000000     0.113890000000     0.749193333333   
O      0.098820000000     0.117156666667     0.715596666667   
O      0.250000000000     0.240230000000     0.750000000000   
O      0.125000000000     0.250000000000     0.833333333333   
Si     0.418195000000     0.115283333333     0.955680000000   
Si     0.356405000000     0.140620000000     0.977160000000   
Si     0.413715000000     0.137673333333     0.750783333333   
Si     0.457400000000     0.085796666667     0.720600000000   
Si     0.364785000000     0.224146666667     0.955403333333   
O      0.379780000000     0.120790000000     0.955863333333   
O      0.427455000000     0.153103333333     0.935810000000   
O      0.450540000000     0.107363333333     0.674203333333   
O      0.414960000000     0.079523333333     0.923496666667   
O      0.379295000000     0.139343333333     0.699306666667   
O      0.317985000000     0.118393333333     0.959560000000   
O      0.347885000000     0.184203333333     0.960123333333   
O      0.446865000000     0.113890000000     0.750806666667   
O      0.401180000000     0.117156666667     0.784403333333   
O      0.375000000000     0.250000000000     0.666666666667   
Si     0.168195000000     0.051383333333     0.789013333333   
Si     0.106405000000     0.026046666667     0.810493333333   
Si     0.163715000000     0.028993333333     0.917450000000   
Si     0.207400000000     0.080870000000     0.887266666667   
Si     0.114785000000     0.275853333333     0.788736666667   
O      0.129780000000     0.045876666667     0.789196666667   
O      0.177455000000     0.013563333333     0.769143333333   
O      0.200540000000     0.059303333333     0.840870000000   
O      0.164960000000     0.087143333333     0.756830000000   
O      0.129295000000     0.027323333333     0.865973333333   
O      0.067985000000     0.048273333333     0.792893333333   
O      0.097885000000     0.315796666667     0.793456666667   
O      0.196865000000     0.052776666667     0.917473333333   
O      0.151180000000     0.049510000000     0.951070000000   
O      0.000000000000     0.259770000000     0.916666666667   
Si     0.331805000000     0.051383333333     0.710986666667   
Si     0.393595000000     0.026046666667     0.689506666667   
Si     0.336285000000     0.028993333333     0.915883333333   
Si     0.292600000000     0.080870000000     0.946066666667   
Si     0.385215000000     0.275853333333     0.711263333333   
O      0.370220000000     0.045876666667     0.710803333333   
O      0.322545000000     0.013563333333     0.730856666667   
O      0.299460000000     0.059303333333     0.992463333333   
O      0.335040000000     0.087143333333     0.743170000000   
O      0.370705000000     0.027323333333     0.967360000000   
O      0.432015000000     0.048273333333     0.707106666667   
O      0.402115000000     0.315796666667     0.706543333333   
O      0.303135000000     0.052776666667     0.915860000000   
O      0.348820000000     0.049510000000     0.882263333333   
Si     0.331805000000     0.281950000000     0.877653333333   
Si     0.393595000000     0.307286666667     0.856173333333   
Si     0.336285000000     0.304340000000     0.749216666667   
Si     0.292600000000     0.252463333333     0.779400000000   
Si     0.385215000000     0.057480000000     0.877930000000   
O      0.370220000000     0.287456666667     0.877470000000   
O      0.322545000000     0.319770000000     0.897523333333   
O      0.299460000000     0.274030000000     0.825796666667   
O      0.335040000000     0.246190000000     0.909836666667   
O      0.370705000000     0.306010000000     0.800693333333   
O      0.432015000000     0.285060000000     0.873773333333   
O      0.402115000000     0.017536666667     0.873210000000   
O      0.303135000000     0.280556666667     0.749193333333   
O      0.348820000000     0.283823333333     0.715596666667   
O      0.000000000000     0.073563333333     0.750000000000   
Si     0.168195000000     0.281950000000     0.955680000000   
Si     0.106405000000     0.307286666667     0.977160000000   
Si     0.163715000000     0.304340000000     0.750783333333   
Si     0.207400000000     0.252463333333     0.720600000000   
Si     0.114785000000     0.057480000000     0.955403333333   
O      0.129780000000     0.287456666667     0.955863333333   
O      0.177455000000     0.319770000000     0.935810000000   
O      0.200540000000     0.274030000000     0.674203333333   
O      0.164960000000     0.246190000000     0.923496666667   
O      0.129295000000     0.306010000000     0.699306666667   
O      0.067985000000     0.285060000000     0.959560000000   
O      0.097885000000     0.017536666667     0.960123333333   
O      0.196865000000     0.280556666667     0.750806666667   
O      0.151180000000     0.283823333333     0.784403333333   
Si     0.418195000000     0.551383333333     0.122346666667   
Si     0.356405000000     0.526046666667     0.143826666667   
Si     0.413715000000     0.528993333333     0.250783333333   
Si     0.457400000000     0.580870000000     0.220600000000   
Si     0.364785000000     0.442520000000     0.122070000000   
O      0.379780000000     0.545876666667     0.122530000000   
O      0.427455000000     0.513563333333     0.102476666667   
O      0.450540000000     0.559303333333     0.174203333333   
O      0.414960000000     0.587143333333     0.090163333333   
O      0.379295000000     0.527323333333     0.199306666667   
O      0.317985000000     0.548273333333     0.126226666667   
O      0.347885000000     0.482463333333     0.126790000000   
O      0.446865000000     0.552776666667     0.250806666667   
O      0.401180000000     0.549510000000     0.284403333333   
O      0.250000000000     0.426436666667     0.250000000000   
O      0.375000000000     0.416666666667     0.166666666667   
Si     0.081805000000     0.551383333333     0.044320000000   
Si     0.143595000000     0.526046666667     0.022840000000   
Si     0.086285000000     0.528993333333     0.249216666667   
Si     0.042600000000     0.580870000000     0.279400000000   
Si     0.135215000000     0.442520000000     0.044596666667   
O      0.120220000000     0.545876666667     0.044136666667   
O      0.072545000000     0.513563333333     0.064190000000   
O      0.049460000000     0.559303333333     0.325796666667   
O      0.085040000000     0.587143333333     0.076503333333   
O      0.120705000000     0.527323333333     0.300693333333   
O      0.182015000000     0.548273333333     0.040440000000   
O      0.152115000000     0.482463333333     0.039876666667   
O      0.053135000000     0.552776666667     0.249193333333   
O      0.098820000000     0.549510000000     0.215596666667   
O      0.125000000000     0.416666666667     0.000000000000   
Si     0.081805000000     0.448616666667     0.210986666667   
Si     0.143595000000     0.473953333333     0.189506666667   
Si     0.086285000000     0.471006666667     0.082550000000   
Si     0.042600000000     0.419130000000     0.112733333333   
Si     0.135215000000     0.557480000000     0.211263333333   
O      0.120220000000     0.454123333333     0.210803333333   
O      0.072545000000     0.486436666667     0.230856666667   
O      0.049460000000     0.440696666667     0.159130000000   
O      0.085040000000     0.412856666667     0.243170000000   
O      0.120705000000     0.472676666667     0.134026666667   
O      0.182015000000     0.451726666667     0.207106666667   
O      0.152115000000     0.517536666667     0.206543333333   
O      0.053135000000     0.447223333333     0.082526666667   
O      0.098820000000     0.450490000000     0.048930000000   
O      0.250000000000     0.573563333333     0.083333333333   
O      0.125000000000     0.583333333333     0.166666666667   
Si     0.418195000000     0.448616666667     0.289013333333   
Si     0.356405000000     0.473953333333     0.310493333333   
Si     0.413715000000     0.471006666667     0.084116666667   
Si     0.457400000000     0.419130000000     0.053933333333   
Si     0.364785000000     0.557480000000     0.288736666667   
O      0.379780000000     0.454123333333     0.289196666667   
O      0.427455000000     0.486436666667     0.269143333333   
O      0.450540000000     0.440696666667     0.007536666667   
O      0.414960000000     0.412856666667     0.256830000000   
O      0.379295000000     0.472676666667     0.032640000000   
O      0.317985000000     0.451726666667     0.292893333333   
O      0.347885000000     0.517536666667     0.293456666667   
O      0.446865000000     0.447223333333     0.084140000000   
O      0.401180000000     0.450490000000     0.117736666667   
O      0.375000000000     0.583333333333     0.000000000000   
Si     0.168195000000     0.384716666667     0.122346666667   
Si     0.106405000000     0.359380000000     0.143826666667   
Si     0.163715000000     0.362326666667     0.250783333333   
Si     0.207400000000     0.414203333333     0.220600000000   
Si     0.114785000000     0.609186666667     0.122070000000   
O      0.129780000000     0.379210000000     0.122530000000   
O      0.177455000000     0.346896666667     0.102476666667   
O      0.200540000000     0.392636666667     0.174203333333   
O      0.164960000000     0.420476666667     0.090163333333   
O      0.129295000000     0.360656666667     0.199306666667   
O      0.067985000000     0.381606666667     0.126226666667   
O      0.097885000000     0.649130000000     0.126790000000   
O      0.196865000000     0.386110000000     0.250806666667   
O      0.151180000000     0.382843333333     0.284403333333   
O      0.000000000000     0.593103333333     0.250000000000   
Si     0.331805000000     0.384716666667     0.044320000000   
Si     0.393595000000     0.359380000000     0.022840000000   
Si     0.336285000000     0.362326666667     0.249216666667   
Si     0.292600000000     0.414203333333     0.279400000000   
Si     0.385215000000     0.609186666667     0.044596666667   
O      0.370220000000     0.379210000000     0.044136666667   
O      0.322545000000     0.346896666667     0.064190000000   
O      0.299460000000     0.392636666667     0.325796666667   
O      0.335040000000     0.420476666667     0.076503333333   
O      0.370705000000     0.360656666667     0.300693333333   
O      0.432015000000     0.381606666667     0.040440000000   
O      0.402115000000     0.649130000000     0.039876666667   
O      0.303135000000     0.386110000000     0.249193333333   
O      0.348820000000     0.382843333333     0.215596666667   
Si     0.331805000000     0.615283333333     0.210986666667   
Si     0.393595000000     0.640620000000     0.189506666667   
Si     0.336285000000     0.637673333333     0.082550000000   
Si     0.292600000000     0.585796666667     0.112733333333   
Si     0.385215000000     0.390813333333     0.211263333333   
O      0.370220000000     0.620790000000     0.210803333333   
O      0.322545000000     0.653103333333     0.230856666667   
O      0.299460000000     0.607363333333     0.159130000000   
O      0.335040000000     0.579523333333     0.243170000000   
O      0.370705000000     0.639343333333     0.134026666667   
O      0.432015000000     0.618393333333     0.207106666667   
O      0.402115000000     0.350870000000     0.206543333333   
O      0.303135000000     0.613890000000     0.082526666667   
O      0.348820000000     0.617156666667     0.048930000000   
O      0.000000000000     0.406896666667     0.083333333333   
Si     0.168195000000     0.615283333333     0.289013333333   
Si     0.106405000000     0.640620000000     0.310493333333   
Si     0.163715000000     0.637673333333     0.084116666667   
Si     0.207400000000     0.585796666667     0.053933333333   
Si     0.114785000000     0.390813333333     0.288736666667   
O      0.129780000000     0.620790000000     0.289196666667   