%BLOCK LATTICE_CART
ang    # angstrom units
  8.965000000000     0.000000000000     0.000000000000   
  0.000000000000     8.965000000000     0.000000000000   
  0.000000000000     0.000000000000     8.965000000000   
%ENDBLOCK LATTICE_CART

%BLOCK POSITIONS_FRAC
O      0.048900000000     0.166666666667     0.284433333333   
Si     0.083333333333     0.166666666667     0.000000000000   
O      0.166666666667     0.048900000000     0.284433333333   
Si     0.166666666667     0.083333333333     0.000000000000   
O      0.284433333333     0.166666666667     0.284433333333   
Si     0.250000000000     0.166666666667     0.000000000000   
O      0.166666666667     0.284433333333     0.284433333333   
Si     0.166666666667     0.250000000000     0.000000000000   
O      0.048900000000     0.166666666667     0.048900000000   
O      0.166666666667     0.048900000000     0.048900000000   
O      0.284433333333     0.166666666667     0.048900000000   
O      0.166666666667     0.284433333333     0.048900000000   
O      0.284433333333     0.048900000000     0.166666666667   
Si     0.000000000000     0.083333333333     0.166666666667   
O      0.284433333333     0.284433333333     0.166666666667   
Si     0.250000000000     0.000000000000     0.166666666667   
O      0.048900000000     0.284433333333     0.166666666667   
Si     0.000000000000     0.250000000000     0.166666666667   
O      0.048900000000     0.048900000000     0.166666666667   
Si     0.083333333333     0.000000000000     0.166666666667   
Si     0.166666666667     0.000000000000     0.083333333333   
Si     0.166666666667     0.000000000000     0.250000000000   
Si     0.000000000000     0.166666666667     0.250000000000   
Si     0.000000000000     0.166666666667     0.083333333333   
O      0.215566666667     0.000000000000     0.117766666667   
O      0.000000000000     0.215566666667     0.117766666667   
O      0.117766666667     0.000000000000     0.117766666667   
O      0.000000000000     0.117766666667     0.117766666667   
O      0.215566666667     0.000000000000     0.215566666667   
O      0.000000000000     0.215566666667     0.215566666667   
O      0.117766666667     0.000000000000     0.215566666667   
O      0.000000000000     0.117766666667     0.215566666667   
O      0.117766666667     0.215566666667     0.000000000000   
O      0.117766666667     0.117766666667     0.000000000000   
O      0.215566666667     0.117766666667     0.000000000000   
O      0.215566666667     0.215566666667     0.000000000000   
O      0.048900000000     0.166666666667     0.617766666667   
Si     0.083333333333     0.166666666667     0.333333333333   
O      0.166666666667     0.048900000000     0.617766666667   
Si     0.166666666667     0.083333333333     0.333333333333   
O      0.284433333333     0.166666666667     0.617766666667   
Si     0.250000000000     0.166666666667     0.333333333333   
O      0.166666666667     0.284433333333     0.617766666667   
Si     0.166666666667     0.250000000000     0.333333333333   
O      0.048900000000     0.166666666667     0.382233333333   
O      0.166666666667     0.048900000000     0.382233333333   
O      0.284433333333     0.166666666667     0.382233333333   
O      0.166666666667     0.284433333333     0.382233333333   
O      0.284433333333     0.048900000000     0.500000000000   
Si     0.000000000000     0.083333333333     0.500000000000   
O      0.284433333333     0.284433333333     0.500000000000   
Si     0.250000000000     0.000000000000     0.500000000000   
O      0.048900000000     0.284433333333     0.500000000000   
Si     0.000000000000     0.250000000000     0.500000000000   
O      0.048900000000     0.048900000000     0.500000000000   
Si     0.083333333333     0.000000000000     0.500000000000   
Si     0.166666666667     0.000000000000     0.416666666667   
Si     0.166666666667     0.000000000000     0.583333333333   
Si     0.000000000000     0.166666666667     0.583333333333   
Si     0.000000000000     0.166666666667     0.416666666667   
O      0.215566666667     0.000000000000     0.451100000000   
O      0.000000000000     0.215566666667     0.451100000000   
O      0.117766666667     0.000000000000     0.451100000000   
O      0.000000000000     0.117766666667     0.451100000000   
O      0.215566666667     0.000000000000     0.548900000000   
O      0.000000000000     0.215566666667     0.548900000000   
O      0.117766666667     0.000000000000     0.548900000000   
O      0.000000000000     0.117766666667     0.548900000000   
O      0.117766666667     0.215566666667     0.333333333333   
O      0.117766666667     0.117766666667     0.333333333333   
O      0.215566666667     0.117766666667     0.333333333333   
O      0.215566666667     0.215566666667     0.333333333333   
O      0.048900000000     0.166666666667     0.951100000000   
Si     0.083333333333     0.166666666667     0.666666666667   
O      0.166666666667     0.048900000000     0.951100000000   
Si     0.166666666667     0.083333333333     0.666666666667   
O      0.284433333333     0.166666666667     0.951100000000   
Si     0.250000000000     0.166666666667     0.666666666667   
O      0.166666666667     0.284433333333     0.951100000000   
Si     0.166666666667     0.250000000000     0.666666666667   
O      0.048900000000     0.166666666667     0.715566666667   
O      0.166666666667     0.048900000000     0.715566666667   
O      0.284433333333     0.166666666667     0.715566666667   
O      0.166666666667     0.284433333333     0.715566666667   
O      0.284433333333     0.048900000000     0.833333333333   
Si     0.000000000000     0.083333333333     0.833333333333   
O      0.284433333333     0.284433333333     0.833333333333   
Si     0.250000000000     0.000000000000     0.833333333333   
O      0.048900000000     0.284433333333     0.833333333333   
Si     0.000000000000     0.250000000000     0.833333333333   
O      0.048900000000     0.048900000000     0.833333333333   
Si     0.083333333333     0.000000000000     0.833333333333   
Si     0.166666666667     0.000000000000     0.750000000000   
Si     0.166666666667     0.000000000000     0.916666666667   
Si     0.000000000000     0.166666666667     0.916666666667   
Si     0.000000000000     0.166666666667     0.750000000000   
O      0.215566666667     0.000000000000     0.784433333333   
O      0.000000000000     0.215566666667     0.784433333333   
O      0.117766666667     0.000000000000     0.784433333333   
O      0.000000000000     0.117766666667     0.784433333333   
O      0.215566666667     0.000000000000     0.882233333333   
O      0.000000000000     0.215566666667     0.882233333333   
O      0.117766666667     0.000000000000     0.882233333333   
O      0.000000000000     0.117766666667     0.882233333333   
O      0.117766666667     0.215566666667     0.666666666667   
O      0.117766666667     0.117766666667     0.666666666667   
O      0.215566666667     0.117766666667     0.666666666667   
O      0.215566666667     0.215566666667     0.666666666667   
O      0.048900000000     0.500000000000     0.284433333333   
Si     0.083333333333     0.500000000000     0.000000000000   
O      0.166666666667     0.382233333333     0.284433333333   
Si     0.166666666667     0.416666666667     0.000000000000   
O      0.284433333333     0.500000000000     0.284433333333   
Si     0.250000000000     0.500000000000     0.000000000000   
O      0.166666666667     0.617766666667     0.284433333333   
Si     0.166666666667     0.583333333333     0.000000000000   
O      0.048900000000     0.500000000000     0.048900000000   
O      0.166666666667     0.382233333333     0.048900000000   
O      0.284433333333     0.500000000000     0.048900000000   
O      0.166666666667     0.617766666667     0.048900000000   
O      0.284433333333     0.382233333333     0.166666666667   
Si     0.000000000000     0.416666666667     0.166666666667   
O      0.284433333333     0.617766666667     0.166666666667   
Si     0.250000000000     0.333333333333     0.166666666667   
O      0.048900000000     0.617766666667     0.166666666667   
Si     0.000000000000     0.583333333333     0.166666666667   
O      0.048900000000     0.382233333333     0.166666666667   
Si     0.083333333333     0.333333333333     0.166666666667   
Si     0.166666666667     0.333333333333     0.083333333333   
Si     0.166666666667     0.333333333333     0.250000000000   
Si     0.000000000000     0.500000000000     0.250000000000   
Si     0.000000000000     0.500000000000     0.083333333333   
O      0.215566666667     0.333333333333     0.117766666667   
O      0.000000000000     0.548900000000     0.117766666667   
O      0.117766666667     0.333333333333     0.117766666667   
O      0.000000000000     0.451100000000     0.117766666667   
O      0.215566666667     0.333333333333     0.215566666667   
O      0.000000000000     0.548900000000     0.215566666667   
O      0.117766666667     0.333333333333     0.215566666667   
O      0.000000000000     0.451100000000     0.215566666667   
O      0.117766666667     0.548900000000     0.000000000000   
O      0.117766666667     0.451100000000     0.000000000000   
O      0.215566666667     0.451100000000     0.000000000000   
O      0.215566666667     0.548900000000     0.000000000000   
O      0.048900000000     0.500000000000     0.617766666667   
Si     0.083333333333     0.500000000000     0.333333333333   
O      0.166666666667     0.382233333333     0.617766666667   
Si     0.166666666667     0.416666666667     0.333333333333   
O      0.284433333333     0.500000000000     0.617766666667   
Si     0.250000000000     0.500000000000     0.333333333333   
O      0.166666666667     0.617766666667     0.617766666667   
Si     0.166666666667     0.583333333333     0.333333333333   
O      0.048900000000     0.500000000000     0.382233333333   
O      0.166666666667     0.382233333333     0.382233333333   
O      0.284433333333     0.500000000000     0.382233333333   
O      0.166666666667     0.617766666667     0.382233333333   
O      0.284433333333     0.382233333333     0.500000000000   
Si     0.000000000000     0.416666666667     0.500000000000   
O      0.284433333333     0.617766666667     0.500000000000   
Si     0.250000000000     0.333333333333     0.500000000000   
O      0.048900000000     0.617766666667     0.500000000000   
Si     0.000000000000     0.583333333333     0.500000000000   
O      0.048900000000     0.382233333333     0.500000000000   
Si     0.083333333333     0.333333333333     0.500000000000   
Si     0.166666666667     0.333333333333     0.416666666667   
Si     0.166666666667     0.333333333333     0.583333333333   
Si     0.000000000000     0.500000000000     0.583333333333   
Si     0.000000000000     0.500000000000     0.416666666667   
O      0.215566666667     0.333333333333     0.451100000000   
O      0.000000000000     0.548900000000     0.451100000000   
O      0.117766666667     0.333333333333     0.451100000000   
O      0.000000000000     0.451100000000     0.451100000000   
O      0.215566666667     0.333333333333     0.548900000000   
O      0.000000000000     0.548900000000     0.548900000000   
O      0.117766666667     0.333333333333     0.548900000000   
O      0.000000000000     0.451100000000     0.548900000000   
O      0.117766666667     0.548900000000     0.333333333333   
O      0.117766666667     0.451100000000     0.333333333333   
O      0.215566666667     0.451100000000     0.333333333333   
O      0.215566666667     0.548900000000     0.333333333333   
O      0.048900000000     0.500000000000     0.951100000000   
Si     0.083333333333     0.500000000000     0.666666666667   
O      0.166666666667     0.382233333333     0.951100000000   
Si     0.166666666667     0.416666666667     0.666666666667   
O      0.284433333333     0.500000000000     0.951100000000   
Si     0.250000000000     0.500000000000     0.666666666667   
O      0.166666666667     0.617766666667     0.951100000000   
Si     0.166666666667     0.583333333333     0.666666666667   
O      0.048900000000     0.500000000000     0.715566666667   
O      0.166666666667     0.382233333333     0.715566666667   
O      0.284433333333     0.500000000000     0.715566666667   
O      0.166666666667     0.617766666667     0.715566666667   
O      0.284433333333     0.382233333333     0.833333333333   
Si     0.000000000000     0.416666666667     0.833333333333   
O      0.284433333333     0.617766666667     0.833333333333   
Si     0.250000000000     0.333333333333     0.833333333333   
O      0.048900000000     0.617766666667     0.833333333333   
Si     0.000000000000     0.583333333333     0.833333333333   
O      0.048900000000     0.382233333333     0.833333333333   
Si     0.083333333333     0.333333333333     0.833333333333   
Si     0.166666666667     0.333333333333     0.750000000000   
Si     0.166666666667     0.333333333333     0.916666666667   
Si     0.000000000000     0.500000000000     0.916666666667   
Si     0.000000000000     0.500000000000     0.750000000000   
O      0.215566666667     0.333333333333     0.784433333333   
O      0.000000000000     0.548900000000     0.784433333333   
O      0.117766666667     0.333333333333     0.784433333333   
O      0.000000000000     0.451100000000     0.784433333333   
O      0.215566666667     0.333333333333     0.882233333333   
O      0.000000000000     0.548900000000     0.882233333333   
O      0.117766666667     0.333333333333     0.882233333333   
O      0.000000000000     0.451100000000     0.882233333333   
O      0.117766666667     0.548900000000     0.666666666667   
O      0.117766666667     0.451100000000     0.666666666667   
O      0.215566666667     0.451100000000     0.666666666667   
O      0.215566666667     0.548900000000     0.666666666667   
O      0.048900000000     0.833333333333     0.284433333333   
Si     0.083333333333     0.833333333333     0.000000000000   
O      0.166666666667     0.715566666667     0.284433333333   
Si     0.166666666667     0.750000000000     0.000000000000   
O      0.284433333333     0.833333333333     0.284433333333   
Si     0.250000000000     0.833333333333     0.000000000000   
O      0.166666666667     0.951100000000     0.284433333333   
Si     0.166666666667     0.916666666667     0.000000000000   
O      0.048900000000     0.833333333333     0.048900000000   
O      0.166666666667     0.715566666667     0.048900000000   
O      0.284433333333     0.833333333333     0.048900000000   
O      0.166666666667     0.951100000000     0.048900000000   
O      0.284433333333     0.715566666667     0.166666666667   
Si     0.000000000000     0.750000000000     0.166666666667   
O      0.284433333333     0.951100000000     0.166666666667   
Si     0.250000000000     0.666666666667     0.166666666667   
O      0.048900000000     0.951100000000     0.166666666667   
Si     0.000000000000     0.916666666667     0.166666666667   
O      0.048900000000     0.715566666667     0.166666666667   
Si     0.083333333333     0.666666666667     0.166666666667   
Si     0.166666666667     0.666666666667     0.083333333333   
Si     0.166666666667     0.666666666667     0.250000000000   
Si     0.000000000000     0.833333333333     0.250000000000   
Si     0.000000000000     0.833333333333     0.083333333333   
O      0.215566666667     0.666666666667     0.117766666667   
O      0.000000000000     0.882233333333     0.117766666667   
O      0.117766666667     0.666666666667     0.117766666667   
O      0.000000000000     0.784433333333     0.117766666667   
O      0.215566666667     0.666666666667     0.215566666667   
O      0.000000000000     0.882233333333     0.215566666667   
O      0.117766666667     0.666666666667     0.215566666667   
O      0.000000000000     0.784433333333     0.215566666667   
O      0.117766666667     0.882233333333     0.000000000000   
O      0.117766666667     0.784433333333     0.000000000000   
O      0.215566666667     0.784433333333     0.000000000000   
O      0.215566666667     0.882233333333     0.000000000000   
O      0.048900000000     0.833333333333     0.617766666667   
Si     0.083333333333     0.833333333333     0.333333333333   
O      0.166666666667     0.715566666667     0.617766666667   
Si     0.166666666667     0.750000000000     0.333333333333   
O      0.284433333333     0.833333333333     0.617766666667   
Si     0.250000000000     0.833333333333     0.333333333333   
O      0.166666666667     0.951100000000     0.617766666667   
Si     0.166666666667     0.916666666667     0.333333333333   
O      0.048900000000     0.833333333333     0.382233333333   
O      0.166666666667     0.715566666667     0.382233333333   
O      0.284433333333     0.833333333333     0.382233333333   
O      0.166666666667     0.951100000000     0.382233333333   
O      0.284433333333     0.715566666667     0.500000000000   
Si     0.000000000000     0.750000000000     0.500000000000   
O      0.284433333333     0.951100000000     0.500000000000   
Si     0.250000000000     0.666666666667     0.500000000000   
O      0.048900000000     0.951100000000     0.500000000000   
Si     0.000000000000     0.916666666667     0.500000000000   
O      0.048900000000     0.715566666667     0.500000000000   
Si     0.083333333333     0.666666666667     0.500000000000   
Si     0.166666666667     0.666666666667     0.416666666667   
Si     0.166666666667     0.666666666667     0.583333333333   
Si     0.000000000000     0.833333333333     0.583333333333   
Si     0.000000000000     0.833333333333     0.416666666667   
O      0.215566666667     0.666666666667     0.451100000000   
O      0.000000000000     0.882233333333     0.451100000000   
O      0.117766666667     0.666666666667     0.451100000000   
O      0.000000000000     0.784433333333     0.451100000000   
O      0.215566666667     0.666666666667     0.548900000000   
O      0.000000000000     0.882233333333     0.548900000000   
O      0.117766666667     0.666666666667     0.548900000000   
O      0.000000000000     0.784433333333     0.548900000000   
O      0.117766666667     0.882233333333     0.333333333333   
O      0.117766666667     0.784433333333     0.333333333333   
O      0.215566666667     0.784433333333     0.333333333333   
O      0.215566666667     0.882233333333     0.333333333333   
O      0.048900000000     0.833333333333     0.951100000000   
Si     0.083333333333     0.833333333333     0.666666666667   
O      0.166666666667     0.715566666667     0.951100000000   
Si     0.166666666667     0.750000000000     0.666666666667   
O      0.284433333333     0.833333333333     0.951100000000   
Si     0.250000000000     0.833333333333     0.666666666667   
O      0.166666666667     0.951100000000     0.951100000000   
Si     0.166666666667     0.916666666667     0.666666666667   
O      0.048900000000     0.833333333333     0.715566666667   
O      0.166666666667     0.715566666667     0.715566666667   
O      0.284433333333     0.833333333333     0.715566666667   
O      0.166666666667     0.951100000000     0.715566666667   
O      0.284433333333     0.715566666667     0.833333333333   
Si     0.000000000000     0.750000000000     0.833333333333   
O      0.284433333333     0.951100000000     0.833333333333   
Si     0.250000000000     0.666666666667     0.833333333333   
O      0.048900000000     0.951100000000     0.833333333333   
Si     0.000000000000     0.916666666667     0.833333333333   
O      0.048900000000     0.715566666667     0.833333333333   
Si     0.083333333333     0.666666666667     0.833333333333   
Si     0.166666666667     0.666666666667     0.750000000000   
Si     0.166666666667     0.666666666667     0.916666666667   
Si     0.000000000000     0.833333333333     0.916666666667   
Si     0.000000000000     0.833333333333     0.750000000000   
O      0.215566666667     0.666666666667     0.784433333333   
O      0.000000000000     0.882233333333     0.784433333333   
O      0.117766666667     0.666666666667     0.784433333333   
O      0.000000000000     0.784433333333     0.784433333333   
O      0.215566666667     0.666666666667     0.882233333333   
O      0.000000000000     0.882233333333     0.882233333333   
O      0.117766666667     0.666666666667     0.882233333333   
O      0.000000000000     0.784433333333     0.882233333333   
O      0.117766666667     0.882233333333     0.666666666667   
O      0.117766666667     0.784433333333     0.666666666667   
O      0.215566666667     0.784433333333     0.666666666667   
O      0.215566666667     0.882233333333     0.666666666667   
O      0.382233333333     0.166666666667     0.284433333333   
Si     0.416666666667     0.166666666667     0.000000000000   
O      0.500000000000     0.048900000000     0.284433333333   
Si     0.500000000000     0.083333333333     0.000000000000   
O      0.617766666667     0.166666666667     0.284433333333   
Si     0.583333333333     0.166666666667     0.000000000000   
O      0.500000000000     0.284433333333     0.284433333333   
Si     0.500000000000     0.250000000000     0.000000000000   
O      0.382233333333     0.166666666667     0.048900000000   
O      0.500000000000     0.048900000000     0.048900000000   
O      0.617766666667     0.166666666667     0.048900000000   
O      0.500000000000     0.284433333333     0.048900000000   
O      0.617766666667     0.048900000000     0.166666666667   
Si     0.333333333333     0.083333333333     0.166666666667   
O      0.617766666667     0.284433333333     0.166666666667   
Si     0.583333333333     0.000000000000     0.166666666667   
O      0.382233333333     0.284433333333     0.166666666667   
Si     0.333333333333     0.250000000000     0.166666666667   
O      0.382233333333     0.048900000000     0.166666666667   
Si     0.416666666667     0.000000000000     0.166666666667   
Si     0.500000000000     0.000000000000     0.083333333333   
Si     0.500000000000     0.000000000000     0.250000000000   
Si     0.333333333333     0.166666666667     0.250000000000   
Si     0.333333333333     0.166666666667     0.083333333333   
O      0.548900000000     0.000000000000     0.117766666667   
O      0.333333333333     0.215566666667     0.117766666667   
O      0.451100000000     0.000000000000     0.117766666667   
O      0.333333333333     0.117766666667     0.117766666667   
O      0.548900000000     0.000000000000     0.215566666667   
O      0.333333333333     0.215566666667     0.215566666667   
O      0.451100000000     0.000000000000     0.215566666667   
O      0.333333333333     0.117766666667     0.215566666667   
O      0.451100000000     0.215566666667     0.000000000000   
O      0.451100000000     0.117766666667     0.000000000000   
O      0.548900000000     0.117766666667     0.000000000000   
O      0.548900000000     0.215566666667     0.000000000000   
O      0.382233333333     0.166666666667     0.617766666667   
Si     0.416666666667     0.166666666667     0.333333333333   
O      0.500000000000     0.048900000000     0.617766666667   
Si     0.500000000000     0.083333333333     0.333333333333   
O      0.617766666667     0.166666666667     0.617766666667   
Si     0.583333333333     0.166666666667     0.333333333333   
O      0.500000000000     0.284433333333     0.617766666667   
Si     0.500000000000     0.250000000000     0.333333333333   
O      0.382233333333     0.166666666667     0.382233333333   
O      0.500000000000     0.048900000000     0.382233333333   
O      0.617766666667     0.166666666667     0.382233333333   
O      0.500000000000     0.284433333333     0.382233333333   
O      0.617766666667     0.048900000000     0.500000000000   
Si     0.333333333333     0.083333333333     0.500000000000   
O      0.617766666667     0.284433333333     0.500000000000   
Si     0.583333333333     0.000000000000     0.500000000000   
O      0.382233333333     0.284433333333     0.500000000000   
Si     0.333333333333     0.250000000000     0.500000000000   
O      0.382233333333     0.048900000000     0.500000000000   
Si     0.416666666667     0.000000000000     0.500000000000   
Si     0.500000000000     0.000000000000     0.416666666667   
Si     0.500000000000     0.000000000000     0.583333333333   
Si     0.333333333333     0.166666666667     0.583333333333   
Si     0.333333333333     0.166666666667     0.416666666667   
O      0.548900000000     0.000000000000     0.451100000000   
O      0.333333333333     0.215566666667     0.451100000000   
O      0.451100000000     0.000000000000     0.451100000000   
O      0.333333333333     0.117766666667     0.451100000000   
O      0.548900000000     0.000000000000     0.548900000000   
O      0.333333333333     0.215566666667     0.548900000000   
O      0.451100000000     0.000000000000     0.548900000000   
O      0.333333333333     0.117766666667     0.548900000000   
O      0.451100000000     0.215566666667     0.333333333333   
O      0.451100000000     0.117766666667     0.333333333333   
O      0.548900000000     0.117766666667     0.333333333333   
O      0.548900000000     0.215566666667     0.333333333333   
O      0.382233333333     0.166666666667     0.951100000000   
Si     0.416666666667     0.166666666667     0.666666666667   
O      0.500000000000     0.048900000000     0.951100000000   
Si     0.500000000000     0.083333333333     0.666666666667   
O      0.617766666667     0.166666666667     0.951100000000   
Si     0.583333333333     0.166666666667     0.666666666667   
O      0.500000000000     0.284433333333     0.951100000000   
Si     0.500000000000     0.250000000000     0.666666666667   
O      0.382233333333     0.166666666667     0.715566666667   
O      0.500000000000     0.048900000000     0.715566666667   
O      0.617766666667     0.166666666667     0.715566666667   
O      0.500000000000     0.284433333333     0.715566666667   
O      0.617766666667     0.048900000000     0.833333333333   
Si     0.333333333333     0.083333333333     0.833333333333   
O      0.617766666667     0.284433333333     0.833333333333   
Si     0.583333333333     0.000000000000     0.833333333333   
O      0.382233333333     0.284433333333     0.833333333333   
Si     0.333333333333     0.250000000000     0.833333333333   
O      0.382233333333     0.048900000000     0.833333333333   
Si     0.416666666667     0.000000000000     0.833333333333   
Si     0.500000000000     0.000000000000     0.750000000000   
Si     0.500000000000     0.000000000000     0.916666666667   
Si     0.333333333333     0.166666666667     0.916666666667   
Si     0.333333333333     0.166666666667     0.750000000000   
O      0.548900000000     0.000000000000     0.784433333333   
O      0.333333333333     0.215566666667     0.784433333333   
O      0.451100000000     0.000000000000     0.784433333333   
O      0.333333333333     0.117766666667     0.784433333333   
O      0.548900000000     0.000000000000     0.882233333333   
O      0.333333333333     0.215566666667     0.882233333333   
O      0.451100000000     0.000000000000     0.882233333333   
O      0.333333333333     0.117766666667     0.882233333333   
O      0.451100000000     0.215566666667     0.666666666667   
O      0.451100000000     0.117766666667     0.666666666667   
O      0.548900000000     0.117766666667     0.666666666667   
O      0.548900000000     0.215566666667     0.666666666667   
O      0.382233333333     0.500000000000     0.284433333333   
Si     0.416666666667     0.500000000000     0.000000000000   
O      0.500000000000     0.382233333333     0.284433333333   
Si     0.500000000000     0.416666666667     0.000000000000   
O      0.617766666667     0.500000000000     0.284433333333   
Si     0.583333333333     0.500000000000     0.000000000000   
O      0.500000000000     0.617766666667     0.284433333333   
Si     0.500000000000     0.583333333333     0.000000000000   
O      0.382233333333     0.500000000000     0.048900000000   
O      0.500000000000     0.382233333333     0.048900000000   
O      0.617766666667     0.500000000000     0.048900000000   
O      0.500000000000     0.617766666667     0.048900000000   
O      0.617766666667     0.382233333333     0.166666666667   
Si     0.333333333333     0.416666666667     0.166666666667   
O      0.617766666667     0.617766666667     0.166666666667   
Si     0.583333333333     0.333333333333     0.166666666667   
O      0.382233333333     0.617766666667     0.166666666667   
Si     0.333333333333     0.583333333333     0.166666666667   
O      0.382233333333     0.382233333333     0.166666666667   
Si     0.416666666667     0.333333333333     0.166666666667   
Si     0.500000000000     0.333333333333     0.083333333333   
Si     0.500000000000     0.333333333333     0.250000000000   
Si     0.333333333333     0.500000000000     0.250000000000   
Si     0.333333333333     0.500000000000     0.083333333333   
O      0.548900000000     0.333333333333     0.117766666667   
O      0.333333333333     0.548900000000     0.117766666667   
O      0.451100000000     0.333333333333     0.117766666667   
O      0.333333333333     0.451100000000     0.117766666667   
O      0.548900000000     0.333333333333     0.215566666667   
O      0.333333333333     0.548900000000     0.215566666667   
O      0.451100000000     0.333333333333     0.215566666667   
O      0.333333333333     0.451100000000     0.215566666667   
O      0.451100000000     0.548900000000     0.000000000000   
O      0.451100000000     0.451100000000     0.000000000000   
O      0.548900000000     0.451100000000     0.000000000000   
O      0.548900000000     0.548900000000     0.000000000000   
O      0.382233333333     0.500000000000     0.617766666667   
Si     0.416666666667     0.500000000000     0.333333333333   
O      0.500000000000     0.382233333333     0.617766666667   
Si     0.500000000000     0.416666666667     0.333333333333   