%BLOCK LATTICE_CART
ang    # angstrom units
  13.238100000000    0.000000000000     0.000000000000   
 -6.619050000000     11.464530897839    0.000000000000   
  0.000000000000     0.000000000000     17.482000000000  
%ENDBLOCK LATTICE_CART

%BLOCK POSITIONS_FRAC
O      0.038500000000     0.077033333333     0.197950000000   
O      0.332433333333     0.110566666667     0.177450000000   
O      0.295900000000     0.037433333333     0.198350000000   
O      0.000000000000     0.092233333333     0.250000000000   
O      0.079133333333     0.158266666667     0.059150000000   
O      0.008600000000     0.107166666667     0.036450000000   
O      0.027400000000     0.180366666667     0.049000000000   
O      0.019933333333     0.134433333333     0.106250000000   
O      0.072433333333     0.144866666667     0.158150000000   
O      0.036766666667     0.185033333333     0.162050000000   
O      0.296100000000     0.037233333333     0.008500000000   
Si     0.333266666667     0.079400000000     0.206350000000   
Si     0.033766666667     0.145133333333     0.062450000000   
Si     0.031900000000     0.143633333333     0.150550000000   
Si     0.000000000000     0.079233333333     0.000000000000   
O      0.256300000000     0.294800000000     0.197950000000   
O      0.222766666667     0.221866666667     0.177450000000   
O      0.295900000000     0.258466666667     0.198350000000   
O      0.241100000000     0.241100000000     0.250000000000   
O      0.175066666667     0.254200000000     0.059150000000   
O      0.226166666667     0.234766666667     0.036450000000   
O      0.152966666667     0.180366666667     0.049000000000   
O      0.198900000000     0.218833333333     0.106250000000   
O      0.188466666667     0.260900000000     0.158150000000   
O      0.148300000000     0.185066666667     0.162050000000   
O      0.296100000000     0.258866666667     0.008500000000   
Si     0.253933333333     0.253866666667     0.206350000000   
Si     0.188200000000     0.221966666667     0.062450000000   
Si     0.189700000000     0.221600000000     0.150550000000   
Si     0.254100000000     0.254100000000     0.000000000000   
O      0.038533333333     0.294833333333     0.197950000000   
O      0.111466666667     0.000900000000     0.177450000000   
O      0.074866666667     0.037433333333     0.198350000000   
O      0.092233333333     0.000000000000     0.250000000000   
O      0.079133333333     0.254200000000     0.059150000000   
O      0.098566666667     0.324733333333     0.036450000000   
O      0.152966666667     0.305933333333     0.049000000000   
O      0.114500000000     0.313400000000     0.106250000000   
O      0.072433333333     0.260900000000     0.158150000000   
O      0.148266666667     0.296566666667     0.162050000000   
O      0.074466666667     0.037233333333     0.008500000000   
Si     0.079466666667     0.000066666667     0.206350000000   
Si     0.111366666667     0.299566666667     0.062450000000   
Si     0.111733333333     0.301433333333     0.150550000000   
Si     0.079233333333     0.000000000000     0.000000000000   
O      0.077033333333     0.038500000000     0.302050000000   
O      0.110566666667     0.332433333333     0.322550000000   
O      0.037433333333     0.295900000000     0.301650000000   
O      0.158266666667     0.079133333333     0.440850000000   
O      0.107166666667     0.008600000000     0.463550000000   
O      0.180366666667     0.027400000000     0.451000000000   
O      0.134433333333     0.019933333333     0.393750000000   
O      0.144866666667     0.072433333333     0.341850000000   
O      0.185033333333     0.036766666667     0.337950000000   
O      0.037233333333     0.296100000000     0.491500000000   
Si     0.079400000000     0.333266666667     0.293650000000   
Si     0.145133333333     0.033766666667     0.437550000000   
Si     0.143633333333     0.031900000000     0.349450000000   
O      0.294833333333     0.038533333333     0.302050000000   
O      0.000900000000     0.111466666667     0.322550000000   
O      0.037433333333     0.074866666667     0.301650000000   
O      0.254200000000     0.079133333333     0.440850000000   
O      0.324733333333     0.098566666667     0.463550000000   
O      0.305933333333     0.152966666667     0.451000000000   
O      0.313400000000     0.114500000000     0.393750000000   
O      0.260900000000     0.072433333333     0.341850000000   
O      0.296566666667     0.148266666667     0.337950000000   
O      0.037233333333     0.074466666667     0.491500000000   
Si     0.000066666667     0.079466666667     0.293650000000   
Si     0.299566666667     0.111366666667     0.437550000000   
Si     0.301433333333     0.111733333333     0.349450000000   
O      0.294800000000     0.256300000000     0.302050000000   
O      0.221866666667     0.222766666667     0.322550000000   
O      0.258466666667     0.295900000000     0.301650000000   
O      0.254200000000     0.175066666667     0.440850000000   
O      0.234766666667     0.226166666667     0.463550000000   
O      0.180366666667     0.152966666667     0.451000000000   
O      0.218833333333     0.198900000000     0.393750000000   
O      0.260900000000     0.188466666667     0.341850000000   
O      0.185066666667     0.148300000000     0.337950000000   
O      0.258866666667     0.296100000000     0.491500000000   
Si     0.253866666667     0.253933333333     0.293650000000   
Si     0.221966666667     0.188200000000     0.437550000000   
Si     0.221600000000     0.189700000000     0.349450000000   
O      0.000900000000     0.222766666667     0.322550000000   
O      0.000000000000     0.241100000000     0.250000000000   
O      0.324733333333     0.226166666667     0.463550000000   
O      0.313400000000     0.198900000000     0.393750000000   
Si     0.000066666667     0.253933333333     0.293650000000   
Si     0.299566666667     0.188200000000     0.437550000000   
Si     0.301433333333     0.189700000000     0.349450000000   
Si     0.000000000000     0.254100000000     0.000000000000   
O      0.110566666667     0.111466666667     0.322550000000   
O      0.092233333333     0.092233333333     0.250000000000   
O      0.107166666667     0.098566666667     0.463550000000   
O      0.134433333333     0.114500000000     0.393750000000   
Si     0.079400000000     0.079466666667     0.293650000000   
Si     0.145133333333     0.111366666667     0.437550000000   
Si     0.143633333333     0.111733333333     0.349450000000   
Si     0.079233333333     0.079233333333     0.000000000000   
O      0.221866666667     0.332433333333     0.322550000000   
O      0.241100000000     0.000000000000     0.250000000000   
O      0.234766666667     0.008600000000     0.463550000000   
O      0.218833333333     0.019933333333     0.393750000000   
Si     0.253866666667     0.333266666667     0.293650000000   
Si     0.221966666667     0.033766666667     0.437550000000   
Si     0.221600000000     0.031900000000     0.349450000000   
Si     0.254100000000     0.000000000000     0.000000000000   
O      0.222766666667     0.000900000000     0.177450000000   
O      0.226166666667     0.324733333333     0.036450000000   
O      0.198900000000     0.313400000000     0.106250000000   
Si     0.253933333333     0.000066666667     0.206350000000   
Si     0.188200000000     0.299566666667     0.062450000000   
Si     0.189700000000     0.301433333333     0.150550000000   
O      0.332433333333     0.221866666667     0.177450000000   
O      0.008600000000     0.234766666667     0.036450000000   
O      0.019933333333     0.218833333333     0.106250000000   
Si     0.333266666667     0.253866666667     0.206350000000   
Si     0.033766666667     0.221966666667     0.062450000000   
Si     0.031900000000     0.221600000000     0.150550000000   
O      0.111466666667     0.110566666667     0.177450000000   
O      0.098566666667     0.107166666667     0.036450000000   
O      0.114500000000     0.134433333333     0.106250000000   
Si     0.079466666667     0.079400000000     0.206350000000   
Si     0.111366666667     0.145133333333     0.062450000000   
Si     0.111733333333     0.143633333333     0.150550000000   
O      0.038500000000     0.077033333333     0.697950000000   
O      0.332433333333     0.110566666667     0.677450000000   
O      0.295900000000     0.037433333333     0.698350000000   
O      0.000000000000     0.092233333333     0.750000000000   
O      0.079133333333     0.158266666667     0.559150000000   
O      0.008600000000     0.107166666667     0.536450000000   
O      0.027400000000     0.180366666667     0.549000000000   
O      0.019933333333     0.134433333333     0.606250000000   
O      0.072433333333     0.144866666667     0.658150000000   
O      0.036766666667     0.185033333333     0.662050000000   
O      0.296100000000     0.037233333333     0.508500000000   
Si     0.333266666667     0.079400000000     0.706350000000   
Si     0.033766666667     0.145133333333     0.562450000000   
Si     0.031900000000     0.143633333333     0.650550000000   
Si     0.000000000000     0.079233333333     0.500000000000   
O      0.256300000000     0.294800000000     0.697950000000   
O      0.222766666667     0.221866666667     0.677450000000   
O      0.295900000000     0.258466666667     0.698350000000   
O      0.241100000000     0.241100000000     0.750000000000   
O      0.175066666667     0.254200000000     0.559150000000   
O      0.226166666667     0.234766666667     0.536450000000   
O      0.152966666667     0.180366666667     0.549000000000   
O      0.198900000000     0.218833333333     0.606250000000   
O      0.188466666667     0.260900000000     0.658150000000   
O      0.148300000000     0.185066666667     0.662050000000   
O      0.296100000000     0.258866666667     0.508500000000   
Si     0.253933333333     0.253866666667     0.706350000000   
Si     0.188200000000     0.221966666667     0.562450000000   
Si     0.189700000000     0.221600000000     0.650550000000   
Si     0.254100000000     0.254100000000     0.500000000000   
O      0.038533333333     0.294833333333     0.697950000000   
O      0.111466666667     0.000900000000     0.677450000000   
O      0.074866666667     0.037433333333     0.698350000000   
O      0.092233333333     0.000000000000     0.750000000000   
O      0.079133333333     0.254200000000     0.559150000000   
O      0.098566666667     0.324733333333     0.536450000000   
O      0.152966666667     0.305933333333     0.549000000000   
O      0.114500000000     0.313400000000     0.606250000000   
O      0.072433333333     0.260900000000     0.658150000000   
O      0.148266666667     0.296566666667     0.662050000000   
O      0.074466666667     0.037233333333     0.508500000000   
Si     0.079466666667     0.000066666667     0.706350000000   
Si     0.111366666667     0.299566666667     0.562450000000   
Si     0.111733333333     0.301433333333     0.650550000000   
Si     0.079233333333     0.000000000000     0.500000000000   
O      0.077033333333     0.038500000000     0.802050000000   
O      0.110566666667     0.332433333333     0.822550000000   
O      0.037433333333     0.295900000000     0.801650000000   
O      0.158266666667     0.079133333333     0.940850000000   
O      0.107166666667     0.008600000000     0.963550000000   
O      0.180366666667     0.027400000000     0.951000000000   
O      0.134433333333     0.019933333333     0.893750000000   
O      0.144866666667     0.072433333333     0.841850000000   
O      0.185033333333     0.036766666667     0.837950000000   
O      0.037233333333     0.296100000000     0.991500000000   
Si     0.079400000000     0.333266666667     0.793650000000   
Si     0.145133333333     0.033766666667     0.937550000000   
Si     0.143633333333     0.031900000000     0.849450000000   
O      0.294833333333     0.038533333333     0.802050000000   
O      0.000900000000     0.111466666667     0.822550000000   
O      0.037433333333     0.074866666667     0.801650000000   
O      0.254200000000     0.079133333333     0.940850000000   
O      0.324733333333     0.098566666667     0.963550000000   
O      0.305933333333     0.152966666667     0.951000000000   
O      0.313400000000     0.114500000000     0.893750000000   
O      0.260900000000     0.072433333333     0.841850000000   
O      0.296566666667     0.148266666667     0.837950000000   
O      0.037233333333     0.074466666667     0.991500000000   
Si     0.000066666667     0.079466666667     0.793650000000   
Si     0.299566666667     0.111366666667     0.937550000000   
Si     0.301433333333     0.111733333333     0.849450000000   
O      0.294800000000     0.256300000000     0.802050000000   
O      0.221866666667     0.222766666667     0.822550000000   
O      0.258466666667     0.295900000000     0.801650000000   
O      0.254200000000     0.175066666667     0.940850000000   
O      0.234766666667     0.226166666667     0.963550000000   
O      0.180366666667     0.152966666667     0.951000000000   
O      0.218833333333     0.198900000000     0.893750000000   
O      0.260900000000     0.188466666667     0.841850000000   
O      0.185066666667     0.148300000000     0.837950000000   
O      0.258866666667     0.296100000000     0.991500000000   
Si     0.253866666667     0.253933333333     0.793650000000   
Si     0.221966666667     0.188200000000     0.937550000000   
Si     0.221600000000     0.189700000000     0.849450000000   
O      0.000900000000     0.222766666667     0.822550000000   
O      0.000000000000     0.241100000000     0.750000000000   
O      0.324733333333     0.226166666667     0.963550000000   
O      0.313400000000     0.198900000000     0.893750000000   
Si     0.000066666667     0.253933333333     0.793650000000   
Si     0.299566666667     0.188200000000     0.937550000000   
Si     0.301433333333     0.189700000000     0.849450000000   
Si     0.000000000000     0.254100000000     0.500000000000   
O      0.110566666667     0.111466666667     0.822550000000   
O      0.092233333333     0.092233333333     0.750000000000   
O      0.107166666667     0.098566666667     0.963550000000   
O      0.134433333333     0.114500000000     0.893750000000   
Si     0.079400000000     0.079466666667     0.793650000000   
Si     0.145133333333     0.111366666667     0.937550000000   
Si     0.143633333333     0.111733333333     0.849450000000   
Si     0.079233333333     0.079233333333     0.500000000000   
O      0.221866666667     0.332433333333     0.822550000000   
O      0.241100000000     0.000000000000     0.750000000000   
O      0.234766666667     0.008600000000     0.963550000000   
O      0.218833333333     0.019933333333     0.893750000000   
Si     0.253866666667     0.333266666667     0.793650000000   
Si     0.221966666667     0.033766666667     0.937550000000   
Si     0.221600000000     0.031900000000     0.849450000000   
Si     0.254100000000     0.000000000000     0.500000000000   
O      0.222766666667     0.000900000000     0.677450000000   
O      0.226166666667     0.324733333333     0.536450000000   
O      0.198900000000     0.313400000000     0.606250000000   
Si     0.253933333333     0.000066666667     0.706350000000   
Si     0.188200000000     0.299566666667     0.562450000000   
Si     0.189700000000     0.301433333333     0.650550000000   
O      0.332433333333     0.221866666667     0.677450000000   
O      0.008600000000     0.234766666667     0.536450000000   
O      0.019933333333     0.218833333333     0.606250000000   
Si     0.333266666667     0.253866666667     0.706350000000   
Si     0.033766666667     0.221966666667     0.562450000000   
Si     0.031900000000     0.221600000000     0.650550000000   
O      0.111466666667     0.110566666667     0.677450000000   
O      0.098566666667     0.107166666667     0.536450000000   
O      0.114500000000     0.134433333333     0.606250000000   
Si     0.079466666667     0.079400000000     0.706350000000   
Si     0.111366666667     0.145133333333     0.562450000000   
Si     0.111733333333     0.143633333333     0.650550000000   
O      0.038500000000     0.410366666667     0.197950000000   
O      0.332433333333     0.443900000000     0.177450000000   
O      0.295900000000     0.370766666667     0.198350000000   
O      0.000000000000     0.425566666667     0.250000000000   
O      0.079133333333     0.491600000000     0.059150000000   
O      0.008600000000     0.440500000000     0.036450000000   
O      0.027400000000     0.513700000000     0.049000000000   
O      0.019933333333     0.467766666667     0.106250000000   
O      0.072433333333     0.478200000000     0.158150000000   
O      0.036766666667     0.518366666667     0.162050000000   
O      0.296100000000     0.370566666667     0.008500000000   
Si     0.333266666667     0.412733333333     0.206350000000   
Si     0.033766666667     0.478466666667     0.062450000000   
Si     0.031900000000     0.476966666667     0.150550000000   
Si     0.000000000000     0.412566666667     0.000000000000   
O      0.256300000000     0.628133333333     0.197950000000   
O      0.222766666667     0.555200000000     0.177450000000   
O      0.295900000000     0.591800000000     0.198350000000   
O      0.241100000000     0.574433333333     0.250000000000   
O      0.175066666667     0.587533333333     0.059150000000   
O      0.226166666667     0.568100000000     0.036450000000   
O      0.152966666667     0.513700000000     0.049000000000   
O      0.198900000000     0.552166666667     0.106250000000   
O      0.188466666667     0.594233333333     0.158150000000   
O      0.148300000000     0.518400000000     0.162050000000   
O      0.296100000000     0.592200000000     0.008500000000   
Si     0.253933333333     0.587200000000     0.206350000000   
Si     0.188200000000     0.555300000000     0.062450000000   
Si     0.189700000000     0.554933333333     0.150550000000   
Si     0.254100000000     0.587433333333     0.000000000000   
O      0.038533333333     0.628166666667     0.197950000000   
O      0.111466666667     0.334233333333     0.177450000000   
O      0.074866666667     0.370766666667     0.198350000000   
O      0.092233333333     0.333333333333     0.250000000000   
O      0.079133333333     0.587533333333     0.059150000000   
O      0.098566666667     0.658066666667     0.036450000000   
O      0.152966666667     0.639266666667     0.049000000000   
O      0.114500000000     0.646733333333     0.106250000000   
O      0.072433333333     0.594233333333     0.158150000000   
O      0.148266666667     0.629900000000     0.162050000000   
O      0.074466666667     0.370566666667     0.008500000000   
Si     0.079466666667     0.333400000000     0.206350000000   
Si     0.111366666667     0.632900000000     0.062450000000   
Si     0.111733333333     0.634766666667     0.150550000000   
Si     0.079233333333     0.333333333333     0.000000000000   
O      0.077033333333     0.371833333333     0.302050000000   
O      0.110566666667     0.665766666667     0.322550000000   
O      0.037433333333     0.629233333333     0.301650000000   
O      0.158266666667     0.412466666667     0.440850000000   
O      0.107166666667     0.341933333333     0.463550000000   
O      0.180366666667     0.360733333333     0.451000000000   
O      0.134433333333     0.353266666667     0.393750000000   
O      0.144866666667     0.405766666667     0.341850000000   
O      0.185033333333     0.370100000000     0.337950000000   
O      0.037233333333     0.629433333333     0.491500000000   
Si     0.079400000000     0.666600000000     0.293650000000   
Si     0.145133333333     0.367100000000     0.437550000000   
Si     0.143633333333     0.365233333333     0.349450000000   
O      0.294833333333     0.371866666667     0.302050000000   
O      0.000900000000     0.444800000000     0.322550000000   
O      0.037433333333     0.408200000000     0.301650000000   
O      0.254200000000     0.412466666667     0.440850000000   
O      0.324733333333     0.431900000000     0.463550000000   
O      0.305933333333     0.486300000000     0.451000000000   
O      0.313400000000     0.447833333333     0.393750000000   
O      0.260900000000     0.405766666667     0.341850000000   
O      0.296566666667     0.481600000000     0.337950000000   
O      0.037233333333     0.407800000000     0.491500000000   
Si     0.000066666667     0.412800000000     0.293650000000   
Si     0.299566666667     0.444700000000     0.437550000000   
Si     0.301433333333     0.445066666667     0.349450000000   
O      0.294800000000     0.589633333333     0.302050000000   
O      0.221866666667     0.556100000000     0.322550000000   
O      0.258466666667     0.629233333333     0.301650000000   
O      0.254200000000     0.508400000000     0.440850000000   
O      0.234766666667     0.559500000000     0.463550000000   
O      0.180366666667     0.486300000000     0.451000000000   
O      0.218833333333     0.532233333333     0.393750000000   
O      0.260900000000     0.521800000000     0.341850000000   
O      0.185066666667     0.481633333333     0.337950000000   
O      0.258866666667     0.629433333333     0.491500000000   
Si     0.253866666667     0.587266666667     0.293650000000   
Si     0.221966666667     0.521533333333     0.437550000000   
Si     0.221600000000     0.523033333333     0.349450000000   
O      0.000900000000     0.556100000000     0.322550000000   
O      0.000000000000     0.574433333333     0.250000000000   
O      0.324733333333     0.559500000000     0.463550000000   
O      0.313400000000     0.532233333333     0.393750000000   
Si     0.000066666667     0.587266666667     0.293650000000   
Si     0.299566666667     0.521533333333     0.437550000000   
Si     0.301433333333     0.523033333333     0.349450000000   
Si     0.000000000000     0.587433333333     0.000000000000   
O      0.110566666667     0.444800000000     0.322550000000   
O      0.092233333333     0.425566666667     0.250000000000   
O      0.107166666667     0.431900000000     0.463550000000   
O      0.134433333333     0.447833333333     0.393750000000   
Si     0.079400000000     0.412800000000     0.293650000000   
Si     0.145133333333     0.444700000000     0.437550000000   
Si     0.143633333333     0.445066666667     0.349450000000   
Si     0.079233333333     0.412566666667     0.000000000000   
O      0.221866666667     0.665766666667     0.322550000000   
O      0.241100000000     0.333333333333     0.250000000000   
O      0.234766666667     0.341933333333     0.463550000000   
O      0.218833333333     0.353266666667     0.393750000000   
Si     0.253866666667     0.666600000000     0.293650000000   
Si     0.221966666667     0.367100000000     0.437550000000   
Si     0.221600000000     0.365233333333     0.349450000000   
Si     0.254100000000     0.333333333333     0.000000000000   
O      0.222766666667     0.334233333333     0.177450000000   
O      0.226166666667     0.658066666667     0.036450000000   
O      0.198900000000     0.646733333333     0.106250000000   
Si     0.253933333333     0.333400000000     0.206350000000   
Si     0.188200000000     0.632900000000     0.062450000000   
Si     0.189700000000     0.634766666667     0.150550000000   
O      0.332433333333     0.555200000000     0.177450000000   
O      0.008600000000     0.568100000000     0.036450000000   
O      0.019933333333     0.552166666667     0.106250000000   
Si     0.333266666667     0.587200000000     0.206350000000   
Si     0.033766666667     0.555300000000     0.062450000000   
Si     0.031900000000     0.554933333333     0.150550000000   
O      0.111466666667     0.443900000000     0.177450000000   
O      0.098566666667     0.440500000000     0.036450000000   
O      0.114500000000     0.467766666667     0.106250000000   
Si     0.079466666667     0.412733333333     0.206350000000   
Si     0.111366666667     0.478466666667     0.062450000000   
Si     0.111733333333     0.476966666667     0.150550000000   
O      0.038500000000     0.410366666667     0.697950000000   
O      0.332433333333     0.443900000000     0.677450000000   
O      0.295900000000     0.370766666667     0.698350000000   
O      0.000000000000     0.425566666667     0.750000000000   
O      0.079133333333     0.491600000000     0.559150000000   
O      0.008600000000     0.440500000000     0.536450000000   
O      0.027400000000     0.513700000000     0.549000000000   
O      0.019933333333     0.467766666667     0.606250000000   
O      0.072433333333     0.478200000000     0.658150000000   
O      0.036766666667     0.518366666667     0.662050000000   
O      0.296100000000     0.370566666667     0.508500000000   
Si     0.333266666667     0.412733333333     0.706350000000   
Si     0.033766666667     0.478466666667     0.562450000000   
Si     0.031900000000     0.476966666667     0.650550000000   
Si     0.000000000000     0.412566666667     0.500000000000   
O      0.256300000000     0.628133333333     0.697950000000   
O      0.222766666667     0.555200000000     0.677450000000   
O      0.295900000000     0.591800000000     0.698350000000   
O      0.241100000000     0.574433333333     0.750000000000   
O      0.175066666667     0.587533333333     0.559150000000   
O      0.226166666667     0.568100000000     0.536450000000   
O      0.152966666667     0.513700000000     0.549000000000   
O      0.198900000000     0.552166666667     0.606250000000   
O      0.188466666667     0.594233333333     0.658150000000   
O      0.148300000000     0.518400000000     0.662050000000   
O      0.296100000000     0.592200000000     0.508500000000   
Si     0.253933333333     0.587200000000     0.706350000000   
Si     0.188200000000     0.555300000000     0.562450000000   
Si     0.189700000000     0.554933333333     0.650550000000   
Si     0.254100000000     0.587433333333     0.500000000000   
O      0.038533333333     0.628166666667     0.697950000000   
O      0.111466666667     0.334233333333     0.677450000000   
O      0.074866666667     0.370766666667     0.698350000000   
O      0.092233333333     0.333333333333     0.750000000000   
O      0.079133333333     0.587533333333     0.559150000000   
O      0.098566666667     0.658066666667     0.536450000000   
O      0.152966666667     0.639266666667     0.549000000000   
O      0.114500000000     0.646733333333     0.606250000000   
O      0.072433333333     0.594233333333     0.658150000000   
O      0.148266666667     0.629900000000     0.662050000000   
O      0.074466666667     0.370566666667     0.508500000000   
Si     0.079466666667     0.333400000000     0.706350000000   
Si     0.111366666667     0.632900000000     0.562450000000   
Si     0.111733333333     0.634766666667     0.650550000000   
Si     0.079233333333     0.333333333333     0.500000000000   
O      0.077033333333     0.371833333333     0.802050000000   
O      0.110566666667     0.665766666667     0.822550000000   
O      0.037433333333     0.629233333333     0.801650000000   
O      0.158266666667     0.412466666667     0.940850000000   
O      0.107166666667     0.341933333333     0.963550000000   
O      0.180366666667     0.360733333333     0.951000000000   
O      0.134433333333     0.353266666667     0.893750000000   
O      0.144866666667     0.405766666667     0.841850000000   
O      0.185033333333     0.370100000000     0.837950000000   
O      0.037233333333     0.629433333333     0.991500000000   
Si     0.079400000000     0.666600000000     0.793650000000   
Si     0.145133333333     0.367100000000     0.937550000000   
Si     0.143633333333     0.365233333333     0.849450000000   
O      0.294833333333     0.371866666667     0.802050000000   
O      0.000900000000     0.444800000000     0.822550000000   
O      0.037433333333     0.408200000000     0.801650000000   
O      0.254200000000     0.412466666667     0.940850000000   
O      0.324733333333     0.431900000000     0.963550000000   
O      0.305933333333     0.486300000000     0.951000000000   
O      0.313400000000     0.447833333333     0.893750000000   
O      0.260900000000     0.405766666667     0.841850000000   
O      0.296566666667     0.481600000000     0.837950000000   
O      0.037233333333     0.407800000000     0.991500000000   
Si     0.000066666667     0.412800000000     0.793650000000   
Si     0.299566666667     0.444700000000     0.937550000000   
Si     0.301433333333     0.445066666667     0.849450000000   
O      0.294800000000     0.589633333333     0.802050000000   
O      0.221866666667     0.556100000000     0.822550000000   
O      0.258466666667     0.629233333333     0.801650000000   
O      0.254200000000     0.508400000000     0.940850000000   
O      0.234766666667     0.559500000000     0.963550000000   
O      0.180366666667     0.486300000000     0.951000000000   
O      0.218833333333     0.532233333333     0.893750000000   
O      0.260900000000     0.521800000000     0.841850000000   
O      0.185066666667     0.481633333333     0.837950000000   
O      0.258866666667     0.629433333333     0.991500000000   
Si     0.253866666667     0.587266666667     0.793650000000   
Si     0.221966666667     0.521533333333     0.937550000000   
Si     0.221600000000     0.523033333333     0.849450000000   
O      0.000900000000     0.556100000000     0.822550000000   
O      0.000000000000     0.574433333333     0.750000000000   
O      0.324733333333     0.559500000000     0.963550000000   
O      0.313400000000     0.532233333333     0.893750000000   
Si     0.000066666667     0.587266666667     0.793650000000   
Si     0.299566666667     0.521533333333     0.937550000000   
Si     0.301433333333     0.523033333333     0.849450000000   
Si     0.000000000000     0.587433333333     0.500000000000   
O      0.110566666667     0.444800000000     0.822550000000   
O      0.092233333333     0.425566666667     0.750000000000   