%BLOCK LATTICE_CART
ang    # angstrom units
  18.083290000000    0.000000000000     0.000000000000   
  0.000000000000     18.083290000000    0.000000000000   
  0.000000000000     0.000000000000     8.985930000000   
%ENDBLOCK LATTICE_CART

%BLOCK POSITIONS_FRAC
Si     0.050415000000     0.141880000000     0.000000000000   
Si     0.059230000000     0.018175000000     0.000000000000   
Si     0.109800000000     0.000000000000     0.083333333333   
Si     0.128955000000     0.121045000000     0.000000000000   
O      0.066510000000     0.183490000000     0.000000000000   
O      0.025735000000     0.135450000000     0.284466666667   
O      0.084975000000     0.113705000000     0.000000000000   
O      0.083985000000     0.025535000000     0.048710000000   
O      0.024125000000     0.045475000000     0.000000000000   
Si     0.358120000000     0.050415000000     0.000000000000   
Si     0.481825000000     0.059230000000     0.000000000000   
Si     0.000000000000     0.109800000000     0.083333333333   
Si     0.378955000000     0.128955000000     0.000000000000   
O      0.316510000000     0.066510000000     0.000000000000   
O      0.364550000000     0.025735000000     0.284466666667   
O      0.386295000000     0.084975000000     0.000000000000   
O      0.474465000000     0.083985000000     0.048710000000   
O      0.454525000000     0.024125000000     0.000000000000   
Si     0.449585000000     0.358120000000     0.000000000000   
Si     0.440770000000     0.481825000000     0.000000000000   
Si     0.390200000000     0.000000000000     0.083333333333   
Si     0.371045000000     0.378955000000     0.000000000000   
O      0.433490000000     0.316510000000     0.000000000000   
O      0.474265000000     0.364550000000     0.284466666667   
O      0.415025000000     0.386295000000     0.000000000000   
O      0.416015000000     0.474465000000     0.048710000000   
O      0.475875000000     0.454525000000     0.000000000000   
Si     0.141880000000     0.449585000000     0.000000000000   
Si     0.018175000000     0.440770000000     0.000000000000   
Si     0.000000000000     0.390200000000     0.083333333333   
Si     0.121045000000     0.371045000000     0.000000000000   
O      0.183490000000     0.433490000000     0.000000000000   
O      0.135450000000     0.474265000000     0.284466666667   
O      0.113705000000     0.415025000000     0.000000000000   
O      0.025535000000     0.416015000000     0.048710000000   
O      0.045475000000     0.475875000000     0.000000000000   
Si     0.050415000000     0.358120000000     0.166666666667   
Si     0.059230000000     0.481825000000     0.166666666667   
Si     0.128955000000     0.378955000000     0.166666666667   
O      0.066510000000     0.316510000000     0.166666666667   
O      0.025735000000     0.364550000000     0.215533333333   
O      0.084975000000     0.386295000000     0.166666666667   
O      0.083985000000     0.474465000000     0.117956666667   
O      0.024125000000     0.454525000000     0.166666666667   
Si     0.141880000000     0.050415000000     0.166666666667   
Si     0.018175000000     0.059230000000     0.166666666667   
Si     0.121045000000     0.128955000000     0.166666666667   
O      0.183490000000     0.066510000000     0.166666666667   
O      0.135450000000     0.025735000000     0.215533333333   
O      0.113705000000     0.084975000000     0.166666666667   
O      0.025535000000     0.083985000000     0.117956666667   
O      0.045475000000     0.024125000000     0.166666666667   
Si     0.449585000000     0.141880000000     0.166666666667   
Si     0.440770000000     0.018175000000     0.166666666667   
Si     0.371045000000     0.121045000000     0.166666666667   
O      0.433490000000     0.183490000000     0.166666666667   
O      0.474265000000     0.135450000000     0.215533333333   
O      0.415025000000     0.113705000000     0.166666666667   
O      0.416015000000     0.025535000000     0.117956666667   
O      0.475875000000     0.045475000000     0.166666666667   
Si     0.358120000000     0.449585000000     0.166666666667   
Si     0.481825000000     0.440770000000     0.166666666667   
Si     0.378955000000     0.371045000000     0.166666666667   
O      0.316510000000     0.433490000000     0.166666666667   
O      0.364550000000     0.474265000000     0.215533333333   
O      0.386295000000     0.415025000000     0.166666666667   
O      0.474465000000     0.416015000000     0.117956666667   
O      0.454525000000     0.475875000000     0.166666666667   
Si     0.390200000000     0.000000000000     0.250000000000   
O      0.474265000000     0.364550000000     0.048866666667   
O      0.416015000000     0.474465000000     0.284623333333   
Si     0.000000000000     0.390200000000     0.250000000000   
O      0.135450000000     0.474265000000     0.048866666667   
O      0.025535000000     0.416015000000     0.284623333333   
Si     0.109800000000     0.000000000000     0.250000000000   
O      0.025735000000     0.135450000000     0.048866666667   
O      0.083985000000     0.025535000000     0.284623333333   
Si     0.000000000000     0.109800000000     0.250000000000   
O      0.364550000000     0.025735000000     0.048866666667   
O      0.474465000000     0.083985000000     0.284623333333   
O      0.474265000000     0.135450000000     0.117800000000   
O      0.416015000000     0.025535000000     0.215376666667   
O      0.364550000000     0.474265000000     0.117800000000   
O      0.474465000000     0.416015000000     0.215376666667   
O      0.025735000000     0.364550000000     0.117800000000   
O      0.083985000000     0.474465000000     0.215376666667   
O      0.135450000000     0.025735000000     0.117800000000   
O      0.025535000000     0.083985000000     0.215376666667   
Si     0.300415000000     0.391880000000     0.166666666667   
Si     0.309230000000     0.268175000000     0.166666666667   
Si     0.359800000000     0.250000000000     0.250000000000   
O      0.275735000000     0.385450000000     0.117800000000   
O      0.334975000000     0.363705000000     0.166666666667   
O      0.333985000000     0.275535000000     0.215376666667   
O      0.274125000000     0.295475000000     0.166666666667   
Si     0.108120000000     0.300415000000     0.166666666667   
Si     0.231825000000     0.309230000000     0.166666666667   
Si     0.250000000000     0.359800000000     0.250000000000   
O      0.114550000000     0.275735000000     0.117800000000   
O      0.136295000000     0.334975000000     0.166666666667   
O      0.224465000000     0.333985000000     0.215376666667   
O      0.204525000000     0.274125000000     0.166666666667   
Si     0.199585000000     0.108120000000     0.166666666667   
Si     0.190770000000     0.231825000000     0.166666666667   
Si     0.140200000000     0.250000000000     0.250000000000   
O      0.224265000000     0.114550000000     0.117800000000   
O      0.165025000000     0.136295000000     0.166666666667   
O      0.166015000000     0.224465000000     0.215376666667   
O      0.225875000000     0.204525000000     0.166666666667   
Si     0.391880000000     0.199585000000     0.166666666667   
Si     0.268175000000     0.190770000000     0.166666666667   
Si     0.250000000000     0.140200000000     0.250000000000   
O      0.385450000000     0.224265000000     0.117800000000   
O      0.363705000000     0.165025000000     0.166666666667   
O      0.275535000000     0.166015000000     0.215376666667   
O      0.295475000000     0.225875000000     0.166666666667   
Si     0.300415000000     0.108120000000     0.000000000000   
Si     0.309230000000     0.231825000000     0.000000000000   
O      0.275735000000     0.114550000000     0.048866666667   
O      0.334975000000     0.136295000000     0.000000000000   
O      0.333985000000     0.224465000000     0.284623333333   
O      0.274125000000     0.204525000000     0.000000000000   
Si     0.391880000000     0.300415000000     0.000000000000   
Si     0.268175000000     0.309230000000     0.000000000000   
O      0.385450000000     0.275735000000     0.048866666667   
O      0.363705000000     0.334975000000     0.000000000000   
O      0.275535000000     0.333985000000     0.284623333333   
O      0.295475000000     0.274125000000     0.000000000000   
Si     0.199585000000     0.391880000000     0.000000000000   
Si     0.190770000000     0.268175000000     0.000000000000   
O      0.224265000000     0.385450000000     0.048866666667   
O      0.165025000000     0.363705000000     0.000000000000   
O      0.166015000000     0.275535000000     0.284623333333   
O      0.225875000000     0.295475000000     0.000000000000   
Si     0.108120000000     0.199585000000     0.000000000000   
Si     0.231825000000     0.190770000000     0.000000000000   
O      0.114550000000     0.224265000000     0.048866666667   
O      0.136295000000     0.165025000000     0.000000000000   
O      0.224465000000     0.166015000000     0.284623333333   
O      0.204525000000     0.225875000000     0.000000000000   
Si     0.140200000000     0.250000000000     0.083333333333   
O      0.224265000000     0.114550000000     0.215533333333   
O      0.166015000000     0.224465000000     0.117956666667   
Si     0.250000000000     0.140200000000     0.083333333333   
O      0.385450000000     0.224265000000     0.215533333333   
O      0.275535000000     0.166015000000     0.117956666667   
Si     0.359800000000     0.250000000000     0.083333333333   
O      0.275735000000     0.385450000000     0.215533333333   
O      0.333985000000     0.275535000000     0.117956666667   
Si     0.250000000000     0.359800000000     0.083333333333   
O      0.114550000000     0.275735000000     0.215533333333   
O      0.224465000000     0.333985000000     0.117956666667   
O      0.224265000000     0.385450000000     0.284466666667   
O      0.166015000000     0.275535000000     0.048710000000   
O      0.114550000000     0.224265000000     0.284466666667   
O      0.224465000000     0.166015000000     0.048710000000   
O      0.275735000000     0.114550000000     0.284466666667   
O      0.333985000000     0.224465000000     0.048710000000   
O      0.385450000000     0.275735000000     0.284466666667   
O      0.275535000000     0.333985000000     0.048710000000   
Si     0.050415000000     0.141880000000     0.333333333333   
Si     0.059230000000     0.018175000000     0.333333333333   
Si     0.109800000000     0.000000000000     0.416666666667   
Si     0.128955000000     0.121045000000     0.333333333333   
O      0.066510000000     0.183490000000     0.333333333333   
O      0.025735000000     0.135450000000     0.617800000000   
O      0.084975000000     0.113705000000     0.333333333333   
O      0.083985000000     0.025535000000     0.382043333333   
O      0.024125000000     0.045475000000     0.333333333333   
Si     0.358120000000     0.050415000000     0.333333333333   
Si     0.481825000000     0.059230000000     0.333333333333   
Si     0.000000000000     0.109800000000     0.416666666667   
Si     0.378955000000     0.128955000000     0.333333333333   
O      0.316510000000     0.066510000000     0.333333333333   
O      0.364550000000     0.025735000000     0.617800000000   
O      0.386295000000     0.084975000000     0.333333333333   
O      0.474465000000     0.083985000000     0.382043333333   
O      0.454525000000     0.024125000000     0.333333333333   
Si     0.449585000000     0.358120000000     0.333333333333   
Si     0.440770000000     0.481825000000     0.333333333333   
Si     0.390200000000     0.000000000000     0.416666666667   
Si     0.371045000000     0.378955000000     0.333333333333   
O      0.433490000000     0.316510000000     0.333333333333   
O      0.474265000000     0.364550000000     0.617800000000   
O      0.415025000000     0.386295000000     0.333333333333   
O      0.416015000000     0.474465000000     0.382043333333   
O      0.475875000000     0.454525000000     0.333333333333   
Si     0.141880000000     0.449585000000     0.333333333333   
Si     0.018175000000     0.440770000000     0.333333333333   
Si     0.000000000000     0.390200000000     0.416666666667   
Si     0.121045000000     0.371045000000     0.333333333333   
O      0.183490000000     0.433490000000     0.333333333333   
O      0.135450000000     0.474265000000     0.617800000000   
O      0.113705000000     0.415025000000     0.333333333333   
O      0.025535000000     0.416015000000     0.382043333333   
O      0.045475000000     0.475875000000     0.333333333333   
Si     0.050415000000     0.358120000000     0.500000000000   
Si     0.059230000000     0.481825000000     0.500000000000   
Si     0.128955000000     0.378955000000     0.500000000000   
O      0.066510000000     0.316510000000     0.500000000000   
O      0.025735000000     0.364550000000     0.548866666667   
O      0.084975000000     0.386295000000     0.500000000000   
O      0.083985000000     0.474465000000     0.451290000000   
O      0.024125000000     0.454525000000     0.500000000000   
Si     0.141880000000     0.050415000000     0.500000000000   
Si     0.018175000000     0.059230000000     0.500000000000   
Si     0.121045000000     0.128955000000     0.500000000000   
O      0.183490000000     0.066510000000     0.500000000000   
O      0.135450000000     0.025735000000     0.548866666667   
O      0.113705000000     0.084975000000     0.500000000000   
O      0.025535000000     0.083985000000     0.451290000000   
O      0.045475000000     0.024125000000     0.500000000000   
Si     0.449585000000     0.141880000000     0.500000000000   
Si     0.440770000000     0.018175000000     0.500000000000   
Si     0.371045000000     0.121045000000     0.500000000000   
O      0.433490000000     0.183490000000     0.500000000000   
O      0.474265000000     0.135450000000     0.548866666667   
O      0.415025000000     0.113705000000     0.500000000000   
O      0.416015000000     0.025535000000     0.451290000000   
O      0.475875000000     0.045475000000     0.500000000000   
Si     0.358120000000     0.449585000000     0.500000000000   
Si     0.481825000000     0.440770000000     0.500000000000   
Si     0.378955000000     0.371045000000     0.500000000000   
O      0.316510000000     0.433490000000     0.500000000000   
O      0.364550000000     0.474265000000     0.548866666667   
O      0.386295000000     0.415025000000     0.500000000000   
O      0.474465000000     0.416015000000     0.451290000000   
O      0.454525000000     0.475875000000     0.500000000000   
Si     0.390200000000     0.000000000000     0.583333333333   
O      0.474265000000     0.364550000000     0.382200000000   
O      0.416015000000     0.474465000000     0.617956666667   
Si     0.000000000000     0.390200000000     0.583333333333   
O      0.135450000000     0.474265000000     0.382200000000   
O      0.025535000000     0.416015000000     0.617956666667   
Si     0.109800000000     0.000000000000     0.583333333333   
O      0.025735000000     0.135450000000     0.382200000000   
O      0.083985000000     0.025535000000     0.617956666667   
Si     0.000000000000     0.109800000000     0.583333333333   
O      0.364550000000     0.025735000000     0.382200000000   
O      0.474465000000     0.083985000000     0.617956666667   
O      0.474265000000     0.135450000000     0.451133333333   
O      0.416015000000     0.025535000000     0.548710000000   
O      0.364550000000     0.474265000000     0.451133333333   
O      0.474465000000     0.416015000000     0.548710000000   
O      0.025735000000     0.364550000000     0.451133333333   
O      0.083985000000     0.474465000000     0.548710000000   
O      0.135450000000     0.025735000000     0.451133333333   
O      0.025535000000     0.083985000000     0.548710000000   
Si     0.300415000000     0.391880000000     0.500000000000   
Si     0.309230000000     0.268175000000     0.500000000000   
Si     0.359800000000     0.250000000000     0.583333333333   
O      0.275735000000     0.385450000000     0.451133333333   
O      0.334975000000     0.363705000000     0.500000000000   
O      0.333985000000     0.275535000000     0.548710000000   
O      0.274125000000     0.295475000000     0.500000000000   
Si     0.108120000000     0.300415000000     0.500000000000   
Si     0.231825000000     0.309230000000     0.500000000000   
Si     0.250000000000     0.359800000000     0.583333333333   
O      0.114550000000     0.275735000000     0.451133333333   
O      0.136295000000     0.334975000000     0.500000000000   
O      0.224465000000     0.333985000000     0.548710000000   
O      0.204525000000     0.274125000000     0.500000000000   
Si     0.199585000000     0.108120000000     0.500000000000   
Si     0.190770000000     0.231825000000     0.500000000000   
Si     0.140200000000     0.250000000000     0.583333333333   
O      0.224265000000     0.114550000000     0.451133333333   
O      0.165025000000     0.136295000000     0.500000000000   
O      0.166015000000     0.224465000000     0.548710000000   
O      0.225875000000     0.204525000000     0.500000000000   
Si     0.391880000000     0.199585000000     0.500000000000   
Si     0.268175000000     0.190770000000     0.500000000000   
Si     0.250000000000     0.140200000000     0.583333333333   
O      0.385450000000     0.224265000000     0.451133333333   
O      0.363705000000     0.165025000000     0.500000000000   
O      0.275535000000     0.166015000000     0.548710000000   
O      0.295475000000     0.225875000000     0.500000000000   
Si     0.300415000000     0.108120000000     0.333333333333   
Si     0.309230000000     0.231825000000     0.333333333333   
O      0.275735000000     0.114550000000     0.382200000000   
O      0.334975000000     0.136295000000     0.333333333333   
O      0.333985000000     0.224465000000     0.617956666667   
O      0.274125000000     0.204525000000     0.333333333333   
Si     0.391880000000     0.300415000000     0.333333333333   
Si     0.268175000000     0.309230000000     0.333333333333   
O      0.385450000000     0.275735000000     0.382200000000   
O      0.363705000000     0.334975000000     0.333333333333   
O      0.275535000000     0.333985000000     0.617956666667   
O      0.295475000000     0.274125000000     0.333333333333   
Si     0.199585000000     0.391880000000     0.333333333333   
Si     0.190770000000     0.268175000000     0.333333333333   
O      0.224265000000     0.385450000000     0.382200000000   
O      0.165025000000     0.363705000000     0.333333333333   
O      0.166015000000     0.275535000000     0.617956666667   
O      0.225875000000     0.295475000000     0.333333333333   
Si     0.108120000000     0.199585000000     0.333333333333   
Si     0.231825000000     0.190770000000     0.333333333333   
O      0.114550000000     0.224265000000     0.382200000000   
O      0.136295000000     0.165025000000     0.333333333333   
O      0.224465000000     0.166015000000     0.617956666667   
O      0.204525000000     0.225875000000     0.333333333333   
Si     0.140200000000     0.250000000000     0.416666666667   
O      0.224265000000     0.114550000000     0.548866666667   
O      0.166015000000     0.224465000000     0.451290000000   
Si     0.250000000000     0.140200000000     0.416666666667   
O      0.385450000000     0.224265000000     0.548866666667   
O      0.275535000000     0.166015000000     0.451290000000   
Si     0.359800000000     0.250000000000     0.416666666667   
O      0.275735000000     0.385450000000     0.548866666667   
O      0.333985000000     0.275535000000     0.451290000000   
Si     0.250000000000     0.359800000000     0.416666666667   
O      0.114550000000     0.275735000000     0.548866666667   
O      0.224465000000     0.333985000000     0.451290000000   
O      0.224265000000     0.385450000000     0.617800000000   
O      0.166015000000     0.275535000000     0.382043333333   
O      0.114550000000     0.224265000000     0.617800000000   
O      0.224465000000     0.166015000000     0.382043333333   
O      0.275735000000     0.114550000000     0.617800000000   
O      0.333985000000     0.224465000000     0.382043333333   
O      0.385450000000     0.275735000000     0.617800000000   
O      0.275535000000     0.333985000000     0.382043333333   
Si     0.050415000000     0.141880000000     0.666666666667   
Si     0.059230000000     0.018175000000     0.666666666667   
Si     0.109800000000     0.000000000000     0.750000000000   
Si     0.128955000000     0.121045000000     0.666666666667   
O      0.066510000000     0.183490000000     0.666666666667   
O      0.025735000000     0.135450000000     0.951133333333   
O      0.084975000000     0.113705000000     0.666666666667   
O      0.083985000000     0.025535000000     0.715376666667   
O      0.024125000000     0.045475000000     0.666666666667   
Si     0.358120000000     0.050415000000     0.666666666667   
Si     0.481825000000     0.059230000000     0.666666666667   
Si     0.000000000000     0.109800000000     0.750000000000   
Si     0.378955000000     0.128955000000     0.666666666667   
O      0.316510000000     0.066510000000     0.666666666667   
O      0.364550000000     0.025735000000     0.951133333333   
O      0.386295000000     0.084975000000     0.666666666667   
O      0.474465000000     0.083985000000     0.715376666667   
O      0.454525000000     0.024125000000     0.666666666667   
Si     0.449585000000     0.358120000000     0.666666666667   
Si     0.440770000000     0.481825000000     0.666666666667   
Si     0.390200000000     0.000000000000     0.750000000000   
Si     0.371045000000     0.378955000000     0.666666666667   
O      0.433490000000     0.316510000000     0.666666666667   
O      0.474265000000     0.364550000000     0.951133333333   
O      0.415025000000     0.386295000000     0.666666666667   
O      0.416015000000     0.474465000000     0.715376666667   
O      0.475875000000     0.454525000000     0.666666666667   
Si     0.141880000000     0.449585000000     0.666666666667   
Si     0.018175000000     0.440770000000     0.666666666667   
Si     0.000000000000     0.390200000000     0.750000000000   
Si     0.121045000000     0.371045000000     0.666666666667   
O      0.183490000000     0.433490000000     0.666666666667   
O      0.135450000000     0.474265000000     0.951133333333   
O      0.113705000000     0.415025000000     0.666666666667   
O      0.025535000000     0.416015000000     0.715376666667   
O      0.045475000000     0.475875000000     0.666666666667   
Si     0.050415000000     0.358120000000     0.833333333333   
Si     0.059230000000     0.481825000000     0.833333333333   
Si     0.128955000000     0.378955000000     0.833333333333   
O      0.066510000000     0.316510000000     0.833333333333   
O      0.025735000000     0.364550000000     0.882200000000   
O      0.084975000000     0.386295000000     0.833333333333   
O      0.083985000000     0.474465000000     0.784623333333   
O      0.024125000000     0.454525000000     0.833333333333   
Si     0.141880000000     0.050415000000     0.833333333333   
Si     0.018175000000     0.059230000000     0.833333333333   
Si     0.121045000000     0.128955000000     0.833333333333   
O      0.183490000000     0.066510000000     0.833333333333   
O      0.135450000000     0.025735000000     0.882200000000   
O      0.113705000000     0.084975000000     0.833333333333   
O      0.025535000000     0.083985000000     0.784623333333   
O      0.045475000000     0.024125000000     0.833333333333   
Si     0.449585000000     0.141880000000     0.833333333333   
Si     0.440770000000     0.018175000000     0.833333333333   
Si     0.371045000000     0.121045000000     0.833333333333   
O      0.433490000000     0.183490000000     0.833333333333   
O      0.474265000000     0.135450000000     0.882200000000   
O      0.415025000000     0.113705000000     0.833333333333   
O      0.416015000000     0.025535000000     0.784623333333   
O      0.475875000000     0.045475000000     0.833333333333   
Si     0.358120000000     0.449585000000     0.833333333333   
Si     0.481825000000     0.440770000000     0.833333333333   
Si     0.378955000000     0.371045000000     0.833333333333   
O      0.316510000000     0.433490000000     0.833333333333   
O      0.364550000000     0.474265000000     0.882200000000   
O      0.386295000000     0.415025000000     0.833333333333   
O      0.474465000000     0.416015000000     0.784623333333   
O      0.454525000000     0.475875000000     0.833333333333   
Si     0.390200000000     0.000000000000     0.916666666667   
O      0.474265000000     0.364550000000     0.715533333333   
O      0.416015000000     0.474465000000     0.951290000000   
Si     0.000000000000     0.390200000000     0.916666666667   
O      0.135450000000     0.474265000000     0.715533333333   
O      0.025535000000     0.416015000000     0.951290000000   
Si     0.109800000000     0.000000000000     0.916666666667   
O      0.025735000000     0.135450000000     0.715533333333   
O      0.083985000000     0.025535000000     0.951290000000   
Si     0.000000000000     0.109800000000     0.916666666667   
O      0.364550000000     0.025735000000     0.715533333333   
O      0.474465000000     0.083985000000     0.951290000000   
O      0.474265000000     0.135450000000     0.784466666667   
O      0.416015000000     0.025535000000     0.882043333333   
O      0.364550000000     0.474265000000     0.784466666667   
O      0.474465000000     0.416015000000     0.882043333333   
O      0.025735000000     0.364550000000     0.784466666667   
O      0.083985000000     0.474465000000     0.882043333333   
O      0.135450000000     0.025735000000     0.784466666667   
O      0.025535000000     0.083985000000     0.882043333333   
Si     0.300415000000     0.391880000000     0.833333333333   
Si     0.309230000000     0.268175000000     0.833333333333   
Si     0.359800000000     0.250000000000     0.916666666667   
O      0.275735000000     0.385450000000     0.784466666667   
O      0.334975000000     0.363705000000     0.833333333333   
O      0.333985000000     0.275535000000     0.882043333333   
O      0.274125000000     0.295475000000     0.833333333333   
Si     0.108120000000     0.300415000000     0.833333333333   
Si     0.231825000000     0.309230000000     0.833333333333   
Si     0.250000000000     0.359800000000     0.916666666667   
O      0.114550000000     0.275735000000     0.784466666667   
O      0.136295000000     0.334975000000     0.833333333333   
O      0.224465000000     0.333985000000     0.882043333333   
O      0.204525000000     0.274125000000     0.833333333333   
Si     0.199585000000     0.108120000000     0.833333333333   
Si     0.190770000000     0.231825000000     0.833333333333   
Si     0.140200000000     0.250000000000     0.916666666667   
O      0.224265000000     0.114550000000     0.784466666667   
O      0.165025000000     0.136295000000     0.833333333333   
O      0.166015000000     0.224465000000     0.882043333333   
O      0.225875000000     0.204525000000     0.833333333333   
Si     0.391880000000     0.199585000000     0.833333333333   
Si     0.268175000000     0.190770000000     0.833333333333   
Si     0.250000000000     0.140200000000     0.916666666667   
O      0.385450000000     0.224265000000     0.784466666667   
O      0.363705000000     0.165025000000     0.833333333333   
O      0.275535000000     0.166015000000     0.882043333333   
O      0.295475000000     0.225875000000     0.833333333333   
Si     0.300415000000     0.108120000000     0.666666666667   
Si     0.309230000000     0.231825000000     0.666666666667   
O      0.275735000000     0.114550000000     0.715533333333   
O      0.334975000000     0.136295000000     0.666666666667   
O      0.333985000000     0.224465000000     0.951290000000   
O      0.274125000000     0.204525000000     0.666666666667   
Si     0.391880000000     0.300415000000     0.666666666667   
Si     0.268175000000     0.309230000000     0.666666666667   
O      0.385450000000     0.275735000000     0.715533333333   
O      0.363705000000     0.334975000000     0.666666666667   
O      0.275535000000     0.333985000000     0.951290000000   
O      0.295475000000     0.274125000000     0.666666666667   
Si     0.199585000000     0.391880000000     0.666666666667   
Si     0.190770000000     0.268175000000     0.666666666667   
O      0.224265000000     0.385450000000     0.715533333333   
O      0.165025000000     0.363705000000     0.666666666667   
O      0.166015000000     0.275535000000     0.951290000000   
O      0.225875000000     0.295475000000     0.666666666667   
Si     0.108120000000     0.199585000000     0.666666666667   
Si     0.231825000000     0.190770000000     0.666666666667   
O      0.114550000000     0.224265000000     0.715533333333   
O      0.136295000000     0.165025000000     0.666666666667   
O      0.224465000000     0.166015000000     0.951290000000   
O      0.204525000000     0.225875000000     0.666666666667   
Si     0.140200000000     0.250000000000     0.750000000000   
O      0.224265000000     0.114550000000     0.882200000000   
O      0.166015000000     0.224465000000     0.784623333333   
Si     0.250000000000     0.140200000000     0.750000000000   
O      0.385450000000     0.224265000000     0.882200000000   
O      0.275535000000     0.166015000000     0.784623333333   
Si     0.359800000000     0.250000000000     0.750000000000   
O      0.275735000000     0.385450000000     0.882200000000   
O      0.333985000000     0.275535000000     0.784623333333   
Si     0.250000000000     0.359800000000     0.750000000000   
O      0.114550000000     0.275735000000     0.882200000000   
O      0.224465000000     0.333985000000     0.784623333333   