%BLOCK LATTICE_CART
ang    # angstrom units
  9.905000000000     0.000000000000     0.000000000000   
  0.000000000000     9.905000000000     0.000000000000   
  0.000000000000     0.000000000000     9.905000000000   
%ENDBLOCK LATTICE_CART

%BLOCK POSITIONS_FRAC
O      0.083333333333     0.083333333333     0.083333333333   
O      0.062566666667     0.062566666667     0.000000000000   
Si     0.052133333333     0.052133333333     0.052133333333   
O      0.250000000000     0.083333333333     0.083333333333   
O      0.270766666667     0.062566666667     0.000000000000   
Si     0.281200000000     0.052133333333     0.052133333333   
O      0.250000000000     0.250000000000     0.083333333333   
O      0.270766666667     0.270766666667     0.000000000000   
Si     0.281200000000     0.281200000000     0.052133333333   
O      0.083333333333     0.250000000000     0.083333333333   
O      0.062566666667     0.270766666667     0.000000000000   
Si     0.052133333333     0.281200000000     0.052133333333   
O      0.083333333333     0.250000000000     0.250000000000   
Si     0.052133333333     0.281200000000     0.281200000000   
O      0.083333333333     0.083333333333     0.250000000000   
Si     0.052133333333     0.052133333333     0.281200000000   
O      0.250000000000     0.083333333333     0.250000000000   
Si     0.281200000000     0.052133333333     0.281200000000   
O      0.250000000000     0.250000000000     0.250000000000   
Si     0.281200000000     0.281200000000     0.281200000000   
O      0.000000000000     0.062566666667     0.062566666667   
O      0.270766666667     0.000000000000     0.062566666667   
O      0.000000000000     0.270766666667     0.062566666667   
O      0.062566666667     0.000000000000     0.062566666667   
O      0.000000000000     0.270766666667     0.270766666667   
O      0.062566666667     0.000000000000     0.270766666667   
O      0.000000000000     0.062566666667     0.270766666667   
O      0.270766666667     0.000000000000     0.270766666667   
O      0.229233333333     0.229233333333     0.166666666667   
Si     0.218800000000     0.218800000000     0.218800000000   
O      0.104100000000     0.229233333333     0.166666666667   
Si     0.114533333333     0.218800000000     0.218800000000   
O      0.104100000000     0.104100000000     0.166666666667   
Si     0.114533333333     0.114533333333     0.218800000000   
O      0.229233333333     0.104100000000     0.166666666667   
Si     0.218800000000     0.114533333333     0.218800000000   
Si     0.218800000000     0.114533333333     0.114533333333   
Si     0.218800000000     0.218800000000     0.114533333333   
Si     0.114533333333     0.218800000000     0.114533333333   
Si     0.114533333333     0.114533333333     0.114533333333   
O      0.166666666667     0.229233333333     0.229233333333   
O      0.104100000000     0.166666666667     0.229233333333   
O      0.166666666667     0.104100000000     0.229233333333   
O      0.229233333333     0.166666666667     0.229233333333   
O      0.166666666667     0.104100000000     0.104100000000   
O      0.229233333333     0.166666666667     0.104100000000   
O      0.166666666667     0.229233333333     0.104100000000   
O      0.104100000000     0.166666666667     0.104100000000   
O      0.083333333333     0.083333333333     0.416666666667   
O      0.062566666667     0.062566666667     0.333333333333   
Si     0.052133333333     0.052133333333     0.385466666667   
O      0.250000000000     0.083333333333     0.416666666667   
O      0.270766666667     0.062566666667     0.333333333333   
Si     0.281200000000     0.052133333333     0.385466666667   
O      0.250000000000     0.250000000000     0.416666666667   
O      0.270766666667     0.270766666667     0.333333333333   
Si     0.281200000000     0.281200000000     0.385466666667   
O      0.083333333333     0.250000000000     0.416666666667   
O      0.062566666667     0.270766666667     0.333333333333   
Si     0.052133333333     0.281200000000     0.385466666667   
O      0.083333333333     0.250000000000     0.583333333333   
Si     0.052133333333     0.281200000000     0.614533333333   
O      0.083333333333     0.083333333333     0.583333333333   
Si     0.052133333333     0.052133333333     0.614533333333   
O      0.250000000000     0.083333333333     0.583333333333   
Si     0.281200000000     0.052133333333     0.614533333333   
O      0.250000000000     0.250000000000     0.583333333333   
Si     0.281200000000     0.281200000000     0.614533333333   
O      0.000000000000     0.062566666667     0.395900000000   
O      0.270766666667     0.000000000000     0.395900000000   
O      0.000000000000     0.270766666667     0.395900000000   
O      0.062566666667     0.000000000000     0.395900000000   
O      0.000000000000     0.270766666667     0.604100000000   
O      0.062566666667     0.000000000000     0.604100000000   
O      0.000000000000     0.062566666667     0.604100000000   
O      0.270766666667     0.000000000000     0.604100000000   
O      0.229233333333     0.229233333333     0.500000000000   
Si     0.218800000000     0.218800000000     0.552133333333   
O      0.104100000000     0.229233333333     0.500000000000   
Si     0.114533333333     0.218800000000     0.552133333333   
O      0.104100000000     0.104100000000     0.500000000000   
Si     0.114533333333     0.114533333333     0.552133333333   
O      0.229233333333     0.104100000000     0.500000000000   
Si     0.218800000000     0.114533333333     0.552133333333   
Si     0.218800000000     0.114533333333     0.447866666667   
Si     0.218800000000     0.218800000000     0.447866666667   
Si     0.114533333333     0.218800000000     0.447866666667   
Si     0.114533333333     0.114533333333     0.447866666667   
O      0.166666666667     0.229233333333     0.562566666667   
O      0.104100000000     0.166666666667     0.562566666667   
O      0.166666666667     0.104100000000     0.562566666667   
O      0.229233333333     0.166666666667     0.562566666667   
O      0.166666666667     0.104100000000     0.437433333333   
O      0.229233333333     0.166666666667     0.437433333333   
O      0.166666666667     0.229233333333     0.437433333333   
O      0.104100000000     0.166666666667     0.437433333333   
O      0.083333333333     0.083333333333     0.750000000000   
O      0.062566666667     0.062566666667     0.666666666667   
Si     0.052133333333     0.052133333333     0.718800000000   
O      0.250000000000     0.083333333333     0.750000000000   
O      0.270766666667     0.062566666667     0.666666666667   
Si     0.281200000000     0.052133333333     0.718800000000   
O      0.250000000000     0.250000000000     0.750000000000   
O      0.270766666667     0.270766666667     0.666666666667   
Si     0.281200000000     0.281200000000     0.718800000000   
O      0.083333333333     0.250000000000     0.750000000000   
O      0.062566666667     0.270766666667     0.666666666667   
Si     0.052133333333     0.281200000000     0.718800000000   
O      0.083333333333     0.250000000000     0.916666666667   
Si     0.052133333333     0.281200000000     0.947866666667   
O      0.083333333333     0.083333333333     0.916666666667   
Si     0.052133333333     0.052133333333     0.947866666667   
O      0.250000000000     0.083333333333     0.916666666667   
Si     0.281200000000     0.052133333333     0.947866666667   
O      0.250000000000     0.250000000000     0.916666666667   
Si     0.281200000000     0.281200000000     0.947866666667   
O      0.000000000000     0.062566666667     0.729233333333   
O      0.270766666667     0.000000000000     0.729233333333   
O      0.000000000000     0.270766666667     0.729233333333   
O      0.062566666667     0.000000000000     0.729233333333   
O      0.000000000000     0.270766666667     0.937433333333   
O      0.062566666667     0.000000000000     0.937433333333   
O      0.000000000000     0.062566666667     0.937433333333   
O      0.270766666667     0.000000000000     0.937433333333   
O      0.229233333333     0.229233333333     0.833333333333   
Si     0.218800000000     0.218800000000     0.885466666667   
O      0.104100000000     0.229233333333     0.833333333333   
Si     0.114533333333     0.218800000000     0.885466666667   
O      0.104100000000     0.104100000000     0.833333333333   
Si     0.114533333333     0.114533333333     0.885466666667   
O      0.229233333333     0.104100000000     0.833333333333   
Si     0.218800000000     0.114533333333     0.885466666667   
Si     0.218800000000     0.114533333333     0.781200000000   
Si     0.218800000000     0.218800000000     0.781200000000   
Si     0.114533333333     0.218800000000     0.781200000000   
Si     0.114533333333     0.114533333333     0.781200000000   
O      0.166666666667     0.229233333333     0.895900000000   
O      0.104100000000     0.166666666667     0.895900000000   
O      0.166666666667     0.104100000000     0.895900000000   
O      0.229233333333     0.166666666667     0.895900000000   
O      0.166666666667     0.104100000000     0.770766666667   
O      0.229233333333     0.166666666667     0.770766666667   
O      0.166666666667     0.229233333333     0.770766666667   
O      0.104100000000     0.166666666667     0.770766666667   
O      0.083333333333     0.416666666667     0.083333333333   
O      0.062566666667     0.395900000000     0.000000000000   
Si     0.052133333333     0.385466666667     0.052133333333   
O      0.250000000000     0.416666666667     0.083333333333   
O      0.270766666667     0.395900000000     0.000000000000   
Si     0.281200000000     0.385466666667     0.052133333333   
O      0.250000000000     0.583333333333     0.083333333333   
O      0.270766666667     0.604100000000     0.000000000000   
Si     0.281200000000     0.614533333333     0.052133333333   
O      0.083333333333     0.583333333333     0.083333333333   
O      0.062566666667     0.604100000000     0.000000000000   
Si     0.052133333333     0.614533333333     0.052133333333   
O      0.083333333333     0.583333333333     0.250000000000   
Si     0.052133333333     0.614533333333     0.281200000000   
O      0.083333333333     0.416666666667     0.250000000000   
Si     0.052133333333     0.385466666667     0.281200000000   
O      0.250000000000     0.416666666667     0.250000000000   
Si     0.281200000000     0.385466666667     0.281200000000   
O      0.250000000000     0.583333333333     0.250000000000   
Si     0.281200000000     0.614533333333     0.281200000000   
O      0.000000000000     0.395900000000     0.062566666667   
O      0.270766666667     0.333333333333     0.062566666667   
O      0.000000000000     0.604100000000     0.062566666667   
O      0.062566666667     0.333333333333     0.062566666667   
O      0.000000000000     0.604100000000     0.270766666667   
O      0.062566666667     0.333333333333     0.270766666667   
O      0.000000000000     0.395900000000     0.270766666667   
O      0.270766666667     0.333333333333     0.270766666667   
O      0.229233333333     0.562566666667     0.166666666667   
Si     0.218800000000     0.552133333333     0.218800000000   
O      0.104100000000     0.562566666667     0.166666666667   
Si     0.114533333333     0.552133333333     0.218800000000   
O      0.104100000000     0.437433333333     0.166666666667   
Si     0.114533333333     0.447866666667     0.218800000000   
O      0.229233333333     0.437433333333     0.166666666667   
Si     0.218800000000     0.447866666667     0.218800000000   
Si     0.218800000000     0.447866666667     0.114533333333   
Si     0.218800000000     0.552133333333     0.114533333333   
Si     0.114533333333     0.552133333333     0.114533333333   
Si     0.114533333333     0.447866666667     0.114533333333   
O      0.166666666667     0.562566666667     0.229233333333   
O      0.104100000000     0.500000000000     0.229233333333   
O      0.166666666667     0.437433333333     0.229233333333   
O      0.229233333333     0.500000000000     0.229233333333   
O      0.166666666667     0.437433333333     0.104100000000   
O      0.229233333333     0.500000000000     0.104100000000   
O      0.166666666667     0.562566666667     0.104100000000   
O      0.104100000000     0.500000000000     0.104100000000   
O      0.083333333333     0.416666666667     0.416666666667   
O      0.062566666667     0.395900000000     0.333333333333   
Si     0.052133333333     0.385466666667     0.385466666667   
O      0.250000000000     0.416666666667     0.416666666667   
O      0.270766666667     0.395900000000     0.333333333333   
Si     0.281200000000     0.385466666667     0.385466666667   
O      0.250000000000     0.583333333333     0.416666666667   
O      0.270766666667     0.604100000000     0.333333333333   
Si     0.281200000000     0.614533333333     0.385466666667   
O      0.083333333333     0.583333333333     0.416666666667   
O      0.062566666667     0.604100000000     0.333333333333   
Si     0.052133333333     0.614533333333     0.385466666667   
O      0.083333333333     0.583333333333     0.583333333333   
Si     0.052133333333     0.614533333333     0.614533333333   
O      0.083333333333     0.416666666667     0.583333333333   
Si     0.052133333333     0.385466666667     0.614533333333   
O      0.250000000000     0.416666666667     0.583333333333   
Si     0.281200000000     0.385466666667     0.614533333333   
O      0.250000000000     0.583333333333     0.583333333333   
Si     0.281200000000     0.614533333333     0.614533333333   
O      0.000000000000     0.395900000000     0.395900000000   
O      0.270766666667     0.333333333333     0.395900000000   
O      0.000000000000     0.604100000000     0.395900000000   
O      0.062566666667     0.333333333333     0.395900000000   
O      0.000000000000     0.604100000000     0.604100000000   
O      0.062566666667     0.333333333333     0.604100000000   
O      0.000000000000     0.395900000000     0.604100000000   
O      0.270766666667     0.333333333333     0.604100000000   
O      0.229233333333     0.562566666667     0.500000000000   
Si     0.218800000000     0.552133333333     0.552133333333   
O      0.104100000000     0.562566666667     0.500000000000   
Si     0.114533333333     0.552133333333     0.552133333333   
O      0.104100000000     0.437433333333     0.500000000000   
Si     0.114533333333     0.447866666667     0.552133333333   
O      0.229233333333     0.437433333333     0.500000000000   
Si     0.218800000000     0.447866666667     0.552133333333   
Si     0.218800000000     0.447866666667     0.447866666667   
Si     0.218800000000     0.552133333333     0.447866666667   
Si     0.114533333333     0.552133333333     0.447866666667   
Si     0.114533333333     0.447866666667     0.447866666667   
O      0.166666666667     0.562566666667     0.562566666667   
O      0.104100000000     0.500000000000     0.562566666667   
O      0.166666666667     0.437433333333     0.562566666667   
O      0.229233333333     0.500000000000     0.562566666667   
O      0.166666666667     0.437433333333     0.437433333333   
O      0.229233333333     0.500000000000     0.437433333333   
O      0.166666666667     0.562566666667     0.437433333333   
O      0.104100000000     0.500000000000     0.437433333333   
O      0.083333333333     0.416666666667     0.750000000000   
O      0.062566666667     0.395900000000     0.666666666667   
Si     0.052133333333     0.385466666667     0.718800000000   
O      0.250000000000     0.416666666667     0.750000000000   
O      0.270766666667     0.395900000000     0.666666666667   
Si     0.281200000000     0.385466666667     0.718800000000   
O      0.250000000000     0.583333333333     0.750000000000   
O      0.270766666667     0.604100000000     0.666666666667   
Si     0.281200000000     0.614533333333     0.718800000000   
O      0.083333333333     0.583333333333     0.750000000000   
O      0.062566666667     0.604100000000     0.666666666667   
Si     0.052133333333     0.614533333333     0.718800000000   
O      0.083333333333     0.583333333333     0.916666666667   
Si     0.052133333333     0.614533333333     0.947866666667   
O      0.083333333333     0.416666666667     0.916666666667   
Si     0.052133333333     0.385466666667     0.947866666667   
O      0.250000000000     0.416666666667     0.916666666667   
Si     0.281200000000     0.385466666667     0.947866666667   
O      0.250000000000     0.583333333333     0.916666666667   
Si     0.281200000000     0.614533333333     0.947866666667   
O      0.000000000000     0.395900000000     0.729233333333   
O      0.270766666667     0.333333333333     0.729233333333   
O      0.000000000000     0.604100000000     0.729233333333   
O      0.062566666667     0.333333333333     0.729233333333   
O      0.000000000000     0.604100000000     0.937433333333   
O      0.062566666667     0.333333333333     0.937433333333   
O      0.000000000000     0.395900000000     0.937433333333   
O      0.270766666667     0.333333333333     0.937433333333   
O      0.229233333333     0.562566666667     0.833333333333   
Si     0.218800000000     0.552133333333     0.885466666667   
O      0.104100000000     0.562566666667     0.833333333333   
Si     0.114533333333     0.552133333333     0.885466666667   
O      0.104100000000     0.437433333333     0.833333333333   
Si     0.114533333333     0.447866666667     0.885466666667   
O      0.229233333333     0.437433333333     0.833333333333   
Si     0.218800000000     0.447866666667     0.885466666667   
Si     0.218800000000     0.447866666667     0.781200000000   
Si     0.218800000000     0.552133333333     0.781200000000   
Si     0.114533333333     0.552133333333     0.781200000000   
Si     0.114533333333     0.447866666667     0.781200000000   
O      0.166666666667     0.562566666667     0.895900000000   
O      0.104100000000     0.500000000000     0.895900000000   
O      0.166666666667     0.437433333333     0.895900000000   
O      0.229233333333     0.500000000000     0.895900000000   
O      0.166666666667     0.437433333333     0.770766666667   
O      0.229233333333     0.500000000000     0.770766666667   
O      0.166666666667     0.562566666667     0.770766666667   
O      0.104100000000     0.500000000000     0.770766666667   
O      0.083333333333     0.750000000000     0.083333333333   
O      0.062566666667     0.729233333333     0.000000000000   
Si     0.052133333333     0.718800000000     0.052133333333   
O      0.250000000000     0.750000000000     0.083333333333   
O      0.270766666667     0.729233333333     0.000000000000   
Si     0.281200000000     0.718800000000     0.052133333333   
O      0.250000000000     0.916666666667     0.083333333333   
O      0.270766666667     0.937433333333     0.000000000000   
Si     0.281200000000     0.947866666667     0.052133333333   
O      0.083333333333     0.916666666667     0.083333333333   
O      0.062566666667     0.937433333333     0.000000000000   
Si     0.052133333333     0.947866666667     0.052133333333   
O      0.083333333333     0.916666666667     0.250000000000   
Si     0.052133333333     0.947866666667     0.281200000000   
O      0.083333333333     0.750000000000     0.250000000000   
Si     0.052133333333     0.718800000000     0.281200000000   
O      0.250000000000     0.750000000000     0.250000000000   
Si     0.281200000000     0.718800000000     0.281200000000   
O      0.250000000000     0.916666666667     0.250000000000   
Si     0.281200000000     0.947866666667     0.281200000000   
O      0.000000000000     0.729233333333     0.062566666667   
O      0.270766666667     0.666666666667     0.062566666667   
O      0.000000000000     0.937433333333     0.062566666667   
O      0.062566666667     0.666666666667     0.062566666667   
O      0.000000000000     0.937433333333     0.270766666667   
O      0.062566666667     0.666666666667     0.270766666667   
O      0.000000000000     0.729233333333     0.270766666667   
O      0.270766666667     0.666666666667     0.270766666667   
O      0.229233333333     0.895900000000     0.166666666667   
Si     0.218800000000     0.885466666667     0.218800000000   
O      0.104100000000     0.895900000000     0.166666666667   
Si     0.114533333333     0.885466666667     0.218800000000   
O      0.104100000000     0.770766666667     0.166666666667   
Si     0.114533333333     0.781200000000     0.218800000000   
O      0.229233333333     0.770766666667     0.166666666667   
Si     0.218800000000     0.781200000000     0.218800000000   
Si     0.218800000000     0.781200000000     0.114533333333   
Si     0.218800000000     0.885466666667     0.114533333333   
Si     0.114533333333     0.885466666667     0.114533333333   
Si     0.114533333333     0.781200000000     0.114533333333   
O      0.166666666667     0.895900000000     0.229233333333   
O      0.104100000000     0.833333333333     0.229233333333   
O      0.166666666667     0.770766666667     0.229233333333   
O      0.229233333333     0.833333333333     0.229233333333   
O      0.166666666667     0.770766666667     0.104100000000   
O      0.229233333333     0.833333333333     0.104100000000   
O      0.166666666667     0.895900000000     0.104100000000   
O      0.104100000000     0.833333333333     0.104100000000   
O      0.083333333333     0.750000000000     0.416666666667   
O      0.062566666667     0.729233333333     0.333333333333   
Si     0.052133333333     0.718800000000     0.385466666667   
O      0.250000000000     0.750000000000     0.416666666667   
O      0.270766666667     0.729233333333     0.333333333333   
Si     0.281200000000     0.718800000000     0.385466666667   
O      0.250000000000     0.916666666667     0.416666666667   
O      0.270766666667     0.937433333333     0.333333333333   
Si     0.281200000000     0.947866666667     0.385466666667   
O      0.083333333333     0.916666666667     0.416666666667   
O      0.062566666667     0.937433333333     0.333333333333   
Si     0.052133333333     0.947866666667     0.385466666667   
O      0.083333333333     0.916666666667     0.583333333333   
Si     0.052133333333     0.947866666667     0.614533333333   
O      0.083333333333     0.750000000000     0.583333333333   
Si     0.052133333333     0.718800000000     0.614533333333   
O      0.250000000000     0.750000000000     0.583333333333   
Si     0.281200000000     0.718800000000     0.614533333333   
O      0.250000000000     0.916666666667     0.583333333333   
Si     0.281200000000     0.947866666667     0.614533333333   
O      0.000000000000     0.729233333333     0.395900000000   
O      0.270766666667     0.666666666667     0.395900000000   
O      0.000000000000     0.937433333333     0.395900000000   
O      0.062566666667     0.666666666667     0.395900000000   
O      0.000000000000     0.937433333333     0.604100000000   
O      0.062566666667     0.666666666667     0.604100000000   
O      0.000000000000     0.729233333333     0.604100000000   
O      0.270766666667     0.666666666667     0.604100000000   
O      0.229233333333     0.895900000000     0.500000000000   
Si     0.218800000000     0.885466666667     0.552133333333   
O      0.104100000000     0.895900000000     0.500000000000   
Si     0.114533333333     0.885466666667     0.552133333333   
O      0.104100000000     0.770766666667     0.500000000000   
Si     0.114533333333     0.781200000000     0.552133333333   
O      0.229233333333     0.770766666667     0.500000000000   
Si     0.218800000000     0.781200000000     0.552133333333   
Si     0.218800000000     0.781200000000     0.447866666667   
Si     0.218800000000     0.885466666667     0.447866666667   
Si     0.114533333333     0.885466666667     0.447866666667   
Si     0.114533333333     0.781200000000     0.447866666667   
O      0.166666666667     0.895900000000     0.562566666667   
O      0.104100000000     0.833333333333     0.562566666667   
O      0.166666666667     0.770766666667     0.562566666667   
O      0.229233333333     0.833333333333     0.562566666667   
O      0.166666666667     0.770766666667     0.437433333333   
O      0.229233333333     0.833333333333     0.437433333333   
O      0.166666666667     0.895900000000     0.437433333333   
O      0.104100000000     0.833333333333     0.437433333333   
O      0.083333333333     0.750000000000     0.750000000000   
O      0.062566666667     0.729233333333     0.666666666667   
Si     0.052133333333     0.718800000000     0.718800000000   
O      0.250000000000     0.750000000000     0.750000000000   
O      0.270766666667     0.729233333333     0.666666666667   
Si     0.281200000000     0.718800000000     0.718800000000   
O      0.250000000000     0.916666666667     0.750000000000   
O      0.270766666667     0.937433333333     0.666666666667   
Si     0.281200000000     0.947866666667     0.718800000000   
O      0.083333333333     0.916666666667     0.750000000000   
O      0.062566666667     0.937433333333     0.666666666667   
Si     0.052133333333     0.947866666667     0.718800000000   
O      0.083333333333     0.916666666667     0.916666666667   
Si     0.052133333333     0.947866666667     0.947866666667   
O      0.083333333333     0.750000000000     0.916666666667   
Si     0.052133333333     0.718800000000     0.947866666667   
O      0.250000000000     0.750000000000     0.916666666667   
Si     0.281200000000     0.718800000000     0.947866666667   
O      0.250000000000     0.916666666667     0.916666666667   
Si     0.281200000000     0.947866666667     0.947866666667   
O      0.000000000000     0.729233333333     0.729233333333   
O      0.270766666667     0.666666666667     0.729233333333   
O      0.000000000000     0.937433333333     0.729233333333   
O      0.062566666667     0.666666666667     0.729233333333   
O      0.000000000000     0.937433333333     0.937433333333   
O      0.062566666667     0.666666666667     0.937433333333   
O      0.000000000000     0.729233333333     0.937433333333   
O      0.270766666667     0.666666666667     0.937433333333   
O      0.229233333333     0.895900000000     0.833333333333   
Si     0.218800000000     0.885466666667     0.885466666667   
O      0.104100000000     0.895900000000     0.833333333333   
Si     0.114533333333     0.885466666667     0.885466666667   
O      0.104100000000     0.770766666667     0.833333333333   
Si     0.114533333333     0.781200000000     0.885466666667   
O      0.229233333333     0.770766666667     0.833333333333   
Si     0.218800000000     0.781200000000     0.885466666667   
Si     0.218800000000     0.781200000000     0.781200000000   
Si     0.218800000000     0.885466666667     0.781200000000   
Si     0.114533333333     0.885466666667     0.781200000000   
Si     0.114533333333     0.781200000000     0.781200000000   
O      0.166666666667     0.895900000000     0.895900000000   
O      0.104100000000     0.833333333333     0.895900000000   
O      0.166666666667     0.770766666667     0.895900000000   
O      0.229233333333     0.833333333333     0.895900000000   
O      0.166666666667     0.770766666667     0.770766666667   
O      0.229233333333     0.833333333333     0.770766666667   
O      0.166666666667     0.895900000000     0.770766666667   
O      0.104100000000     0.833333333333     0.770766666667   
O      0.416666666667     0.083333333333     0.083333333333   
O      0.395900000000     0.062566666667     0.000000000000   
Si     0.385466666667     0.052133333333     0.052133333333   
O      0.583333333333     0.083333333333     0.083333333333   
O      0.604100000000     0.062566666667     0.000000000000   
Si     0.614533333333     0.052133333333     0.052133333333   
O      0.583333333333     0.250000000000     0.083333333333   
O      0.604100000000     0.270766666667     0.000000000000   
Si     0.614533333333     0.281200000000     0.052133333333   
O      0.416666666667     0.250000000000     0.083333333333   
O      0.395900000000     0.270766666667     0.000000000000   
Si     0.385466666667     0.281200000000     0.052133333333   
O      0.416666666667     0.250000000000     0.250000000000   
Si     0.385466666667     0.281200000000     0.281200000000   
O      0.416666666667     0.083333333333     0.250000000000   
Si     0.385466666667     0.052133333333     0.281200000000   
O      0.583333333333     0.083333333333     0.250000000000   
Si     0.614533333333     0.052133333333     0.281200000000   
O      0.583333333333     0.250000000000     0.250000000000   
Si     0.614533333333     0.281200000000     0.281200000000   
O      0.333333333333     0.062566666667     0.062566666667   
O      0.604100000000     0.000000000000     0.062566666667   
O      0.333333333333     0.270766666667     0.062566666667   
O      0.395900000000     0.000000000000     0.062566666667   
O      0.333333333333     0.270766666667     0.270766666667   
O      0.395900000000     0.000000000000     0.270766666667   
O      0.333333333333     0.062566666667     0.270766666667   
O      0.604100000000     0.000000000000     0.270766666667   
O      0.562566666667     0.229233333333     0.166666666667   
Si     0.552133333333     0.218800000000     0.218800000000   
O      0.437433333333     0.229233333333     0.166666666667   
Si     0.447866666667     0.218800000000     0.218800000000   
O      0.437433333333     0.104100000000     0.166666666667   
Si     0.447866666667     0.114533333333     0.218800000000   
O      0.562566666667     0.104100000000     0.166666666667   
Si     0.552133333333     0.114533333333     0.218800000000   
Si     0.552133333333     0.114533333333     0.114533333333   
Si     0.552133333333     0.218800000000     0.114533333333   
Si     0.447866666667     0.218800000000     0.114533333333   
Si     0.447866666667     0.114533333333     0.114533333333   