%BLOCK LATTICE_CART
ang    # angstrom units
  13.071000000000    0.000000000000     0.000000000000   
  0.000000000000     13.071000000000    0.000000000000   
  0.000000000000     0.000000000000     5.256000000000   
%ENDBLOCK LATTICE_CART

%BLOCK POSITIONS_FRAC
O      0.178350000000     0.071650000000     0.150000000000   
O      0.250000000000     0.120950000000     0.000000000000   
O      0.155900000000     0.155900000000     0.000000000000   
Si     0.190500000000     0.105050000000     0.000000000000   
O      0.428350000000     0.178350000000     0.150000000000   
O      0.379050000000     0.250000000000     0.000000000000   
O      0.344100000000     0.155900000000     0.000000000000   
Si     0.394950000000     0.190500000000     0.000000000000   
O      0.321650000000     0.428350000000     0.150000000000   
O      0.250000000000     0.379050000000     0.000000000000   
O      0.344100000000     0.344100000000     0.000000000000   
Si     0.309500000000     0.394950000000     0.000000000000   
O      0.071650000000     0.321650000000     0.150000000000   
O      0.120950000000     0.250000000000     0.000000000000   
O      0.155900000000     0.344100000000     0.000000000000   
Si     0.105050000000     0.309500000000     0.000000000000   
O      0.178350000000     0.428350000000     0.050000000000   
Si     0.190500000000     0.394950000000     0.000000000000   
O      0.071650000000     0.178350000000     0.050000000000   
Si     0.105050000000     0.190500000000     0.000000000000   
O      0.321650000000     0.071650000000     0.050000000000   
Si     0.309500000000     0.105050000000     0.000000000000   
O      0.428350000000     0.321650000000     0.050000000000   
Si     0.394950000000     0.309500000000     0.000000000000   
O      0.321650000000     0.428350000000     0.050000000000   
O      0.071650000000     0.321650000000     0.050000000000   
O      0.178350000000     0.071650000000     0.050000000000   
O      0.428350000000     0.178350000000     0.050000000000   
O      0.321650000000     0.071650000000     0.150000000000   
O      0.428350000000     0.321650000000     0.150000000000   
O      0.178350000000     0.428350000000     0.150000000000   
O      0.071650000000     0.178350000000     0.150000000000   
O      0.000000000000     0.370950000000     0.100000000000   
O      0.405900000000     0.405900000000     0.100000000000   
Si     0.440500000000     0.355050000000     0.100000000000   
O      0.129050000000     0.000000000000     0.100000000000   
O      0.094100000000     0.405900000000     0.100000000000   
Si     0.144950000000     0.440500000000     0.100000000000   
O      0.000000000000     0.129050000000     0.100000000000   
O      0.094100000000     0.094100000000     0.100000000000   
Si     0.059500000000     0.144950000000     0.100000000000   
O      0.370950000000     0.000000000000     0.100000000000   
O      0.405900000000     0.094100000000     0.100000000000   
Si     0.355050000000     0.059500000000     0.100000000000   
Si     0.440500000000     0.144950000000     0.100000000000   
Si     0.355050000000     0.440500000000     0.100000000000   
Si     0.059500000000     0.355050000000     0.100000000000   
Si     0.144950000000     0.059500000000     0.100000000000   
O      0.178350000000     0.071650000000     0.350000000000   
O      0.250000000000     0.120950000000     0.200000000000   
O      0.155900000000     0.155900000000     0.200000000000   
Si     0.190500000000     0.105050000000     0.200000000000   
O      0.428350000000     0.178350000000     0.350000000000   
O      0.379050000000     0.250000000000     0.200000000000   
O      0.344100000000     0.155900000000     0.200000000000   
Si     0.394950000000     0.190500000000     0.200000000000   
O      0.321650000000     0.428350000000     0.350000000000   
O      0.250000000000     0.379050000000     0.200000000000   
O      0.344100000000     0.344100000000     0.200000000000   
Si     0.309500000000     0.394950000000     0.200000000000   
O      0.071650000000     0.321650000000     0.350000000000   
O      0.120950000000     0.250000000000     0.200000000000   
O      0.155900000000     0.344100000000     0.200000000000   
Si     0.105050000000     0.309500000000     0.200000000000   
O      0.178350000000     0.428350000000     0.250000000000   
Si     0.190500000000     0.394950000000     0.200000000000   
O      0.071650000000     0.178350000000     0.250000000000   
Si     0.105050000000     0.190500000000     0.200000000000   
O      0.321650000000     0.071650000000     0.250000000000   
Si     0.309500000000     0.105050000000     0.200000000000   
O      0.428350000000     0.321650000000     0.250000000000   
Si     0.394950000000     0.309500000000     0.200000000000   
O      0.321650000000     0.428350000000     0.250000000000   
O      0.071650000000     0.321650000000     0.250000000000   
O      0.178350000000     0.071650000000     0.250000000000   
O      0.428350000000     0.178350000000     0.250000000000   
O      0.321650000000     0.071650000000     0.350000000000   
O      0.428350000000     0.321650000000     0.350000000000   
O      0.178350000000     0.428350000000     0.350000000000   
O      0.071650000000     0.178350000000     0.350000000000   
O      0.000000000000     0.370950000000     0.300000000000   
O      0.405900000000     0.405900000000     0.300000000000   
Si     0.440500000000     0.355050000000     0.300000000000   
O      0.129050000000     0.000000000000     0.300000000000   
O      0.094100000000     0.405900000000     0.300000000000   
Si     0.144950000000     0.440500000000     0.300000000000   
O      0.000000000000     0.129050000000     0.300000000000   
O      0.094100000000     0.094100000000     0.300000000000   
Si     0.059500000000     0.144950000000     0.300000000000   
O      0.370950000000     0.000000000000     0.300000000000   
O      0.405900000000     0.094100000000     0.300000000000   
Si     0.355050000000     0.059500000000     0.300000000000   
Si     0.440500000000     0.144950000000     0.300000000000   
Si     0.355050000000     0.440500000000     0.300000000000   
Si     0.059500000000     0.355050000000     0.300000000000   
Si     0.144950000000     0.059500000000     0.300000000000   
O      0.178350000000     0.071650000000     0.550000000000   
O      0.250000000000     0.120950000000     0.400000000000   
O      0.155900000000     0.155900000000     0.400000000000   
Si     0.190500000000     0.105050000000     0.400000000000   
O      0.428350000000     0.178350000000     0.550000000000   
O      0.379050000000     0.250000000000     0.400000000000   
O      0.344100000000     0.155900000000     0.400000000000   
Si     0.394950000000     0.190500000000     0.400000000000   
O      0.321650000000     0.428350000000     0.550000000000   
O      0.250000000000     0.379050000000     0.400000000000   
O      0.344100000000     0.344100000000     0.400000000000   
Si     0.309500000000     0.394950000000     0.400000000000   
O      0.071650000000     0.321650000000     0.550000000000   
O      0.120950000000     0.250000000000     0.400000000000   
O      0.155900000000     0.344100000000     0.400000000000   
Si     0.105050000000     0.309500000000     0.400000000000   
O      0.178350000000     0.428350000000     0.450000000000   
Si     0.190500000000     0.394950000000     0.400000000000   
O      0.071650000000     0.178350000000     0.450000000000   
Si     0.105050000000     0.190500000000     0.400000000000   
O      0.321650000000     0.071650000000     0.450000000000   
Si     0.309500000000     0.105050000000     0.400000000000   
O      0.428350000000     0.321650000000     0.450000000000   
Si     0.394950000000     0.309500000000     0.400000000000   
O      0.321650000000     0.428350000000     0.450000000000   
O      0.071650000000     0.321650000000     0.450000000000   
O      0.178350000000     0.071650000000     0.450000000000   
O      0.428350000000     0.178350000000     0.450000000000   
O      0.321650000000     0.071650000000     0.550000000000   
O      0.428350000000     0.321650000000     0.550000000000   
O      0.178350000000     0.428350000000     0.550000000000   
O      0.071650000000     0.178350000000     0.550000000000   
O      0.000000000000     0.370950000000     0.500000000000   
O      0.405900000000     0.405900000000     0.500000000000   
Si     0.440500000000     0.355050000000     0.500000000000   
O      0.129050000000     0.000000000000     0.500000000000   
O      0.094100000000     0.405900000000     0.500000000000   
Si     0.144950000000     0.440500000000     0.500000000000   
O      0.000000000000     0.129050000000     0.500000000000   
O      0.094100000000     0.094100000000     0.500000000000   
Si     0.059500000000     0.144950000000     0.500000000000   
O      0.370950000000     0.000000000000     0.500000000000   
O      0.405900000000     0.094100000000     0.500000000000   
Si     0.355050000000     0.059500000000     0.500000000000   
Si     0.440500000000     0.144950000000     0.500000000000   
Si     0.355050000000     0.440500000000     0.500000000000   
Si     0.059500000000     0.355050000000     0.500000000000   
Si     0.144950000000     0.059500000000     0.500000000000   
O      0.178350000000     0.071650000000     0.750000000000   
O      0.250000000000     0.120950000000     0.600000000000   
O      0.155900000000     0.155900000000     0.600000000000   
Si     0.190500000000     0.105050000000     0.600000000000   
O      0.428350000000     0.178350000000     0.750000000000   
O      0.379050000000     0.250000000000     0.600000000000   
O      0.344100000000     0.155900000000     0.600000000000   
Si     0.394950000000     0.190500000000     0.600000000000   
O      0.321650000000     0.428350000000     0.750000000000   
O      0.250000000000     0.379050000000     0.600000000000   
O      0.344100000000     0.344100000000     0.600000000000   
Si     0.309500000000     0.394950000000     0.600000000000   
O      0.071650000000     0.321650000000     0.750000000000   
O      0.120950000000     0.250000000000     0.600000000000   
O      0.155900000000     0.344100000000     0.600000000000   
Si     0.105050000000     0.309500000000     0.600000000000   
O      0.178350000000     0.428350000000     0.650000000000   
Si     0.190500000000     0.394950000000     0.600000000000   
O      0.071650000000     0.178350000000     0.650000000000   
Si     0.105050000000     0.190500000000     0.600000000000   
O      0.321650000000     0.071650000000     0.650000000000   
Si     0.309500000000     0.105050000000     0.600000000000   
O      0.428350000000     0.321650000000     0.650000000000   
Si     0.394950000000     0.309500000000     0.600000000000   
O      0.321650000000     0.428350000000     0.650000000000   
O      0.071650000000     0.321650000000     0.650000000000   
O      0.178350000000     0.071650000000     0.650000000000   
O      0.428350000000     0.178350000000     0.650000000000   
O      0.321650000000     0.071650000000     0.750000000000   
O      0.428350000000     0.321650000000     0.750000000000   
O      0.178350000000     0.428350000000     0.750000000000   
O      0.071650000000     0.178350000000     0.750000000000   
O      0.000000000000     0.370950000000     0.700000000000   
O      0.405900000000     0.405900000000     0.700000000000   
Si     0.440500000000     0.355050000000     0.700000000000   
O      0.129050000000     0.000000000000     0.700000000000   
O      0.094100000000     0.405900000000     0.700000000000   
Si     0.144950000000     0.440500000000     0.700000000000   
O      0.000000000000     0.129050000000     0.700000000000   
O      0.094100000000     0.094100000000     0.700000000000   
Si     0.059500000000     0.144950000000     0.700000000000   
O      0.370950000000     0.000000000000     0.700000000000   
O      0.405900000000     0.094100000000     0.700000000000   
Si     0.355050000000     0.059500000000     0.700000000000   
Si     0.440500000000     0.144950000000     0.700000000000   
Si     0.355050000000     0.440500000000     0.700000000000   
Si     0.059500000000     0.355050000000     0.700000000000   
Si     0.144950000000     0.059500000000     0.700000000000   
O      0.178350000000     0.071650000000     0.950000000000   
O      0.250000000000     0.120950000000     0.800000000000   
O      0.155900000000     0.155900000000     0.800000000000   
Si     0.190500000000     0.105050000000     0.800000000000   
O      0.428350000000     0.178350000000     0.950000000000   
O      0.379050000000     0.250000000000     0.800000000000   
O      0.344100000000     0.155900000000     0.800000000000   
Si     0.394950000000     0.190500000000     0.800000000000   
O      0.321650000000     0.428350000000     0.950000000000   
O      0.250000000000     0.379050000000     0.800000000000   
O      0.344100000000     0.344100000000     0.800000000000   
Si     0.309500000000     0.394950000000     0.800000000000   
O      0.071650000000     0.321650000000     0.950000000000   
O      0.120950000000     0.250000000000     0.800000000000   
O      0.155900000000     0.344100000000     0.800000000000   
Si     0.105050000000     0.309500000000     0.800000000000   
O      0.178350000000     0.428350000000     0.850000000000   
Si     0.190500000000     0.394950000000     0.800000000000   
O      0.071650000000     0.178350000000     0.850000000000   
Si     0.105050000000     0.190500000000     0.800000000000   
O      0.321650000000     0.071650000000     0.850000000000   
Si     0.309500000000     0.105050000000     0.800000000000   
O      0.428350000000     0.321650000000     0.850000000000   
Si     0.394950000000     0.309500000000     0.800000000000   
O      0.321650000000     0.428350000000     0.850000000000   
O      0.071650000000     0.321650000000     0.850000000000   
O      0.178350000000     0.071650000000     0.850000000000   
O      0.428350000000     0.178350000000     0.850000000000   
O      0.321650000000     0.071650000000     0.950000000000   
O      0.428350000000     0.321650000000     0.950000000000   
O      0.178350000000     0.428350000000     0.950000000000   
O      0.071650000000     0.178350000000     0.950000000000   
O      0.000000000000     0.370950000000     0.900000000000   
O      0.405900000000     0.405900000000     0.900000000000   
Si     0.440500000000     0.355050000000     0.900000000000   
O      0.129050000000     0.000000000000     0.900000000000   
O      0.094100000000     0.405900000000     0.900000000000   
Si     0.144950000000     0.440500000000     0.900000000000   
O      0.000000000000     0.129050000000     0.900000000000   
O      0.094100000000     0.094100000000     0.900000000000   
Si     0.059500000000     0.144950000000     0.900000000000   
O      0.370950000000     0.000000000000     0.900000000000   
O      0.405900000000     0.094100000000     0.900000000000   
Si     0.355050000000     0.059500000000     0.900000000000   
Si     0.440500000000     0.144950000000     0.900000000000   
Si     0.355050000000     0.440500000000     0.900000000000   
Si     0.059500000000     0.355050000000     0.900000000000   
Si     0.144950000000     0.059500000000     0.900000000000   
O      0.178350000000     0.571650000000     0.150000000000   
O      0.250000000000     0.620950000000     0.000000000000   
O      0.155900000000     0.655900000000     0.000000000000   
Si     0.190500000000     0.605050000000     0.000000000000   
O      0.428350000000     0.678350000000     0.150000000000   
O      0.379050000000     0.750000000000     0.000000000000   
O      0.344100000000     0.655900000000     0.000000000000   
Si     0.394950000000     0.690500000000     0.000000000000   
O      0.321650000000     0.928350000000     0.150000000000   
O      0.250000000000     0.879050000000     0.000000000000   
O      0.344100000000     0.844100000000     0.000000000000   
Si     0.309500000000     0.894950000000     0.000000000000   
O      0.071650000000     0.821650000000     0.150000000000   
O      0.120950000000     0.750000000000     0.000000000000   
O      0.155900000000     0.844100000000     0.000000000000   
Si     0.105050000000     0.809500000000     0.000000000000   
O      0.178350000000     0.928350000000     0.050000000000   
Si     0.190500000000     0.894950000000     0.000000000000   
O      0.071650000000     0.678350000000     0.050000000000   
Si     0.105050000000     0.690500000000     0.000000000000   
O      0.321650000000     0.571650000000     0.050000000000   
Si     0.309500000000     0.605050000000     0.000000000000   
O      0.428350000000     0.821650000000     0.050000000000   
Si     0.394950000000     0.809500000000     0.000000000000   
O      0.321650000000     0.928350000000     0.050000000000   
O      0.071650000000     0.821650000000     0.050000000000   
O      0.178350000000     0.571650000000     0.050000000000   
O      0.428350000000     0.678350000000     0.050000000000   
O      0.321650000000     0.571650000000     0.150000000000   
O      0.428350000000     0.821650000000     0.150000000000   
O      0.178350000000     0.928350000000     0.150000000000   
O      0.071650000000     0.678350000000     0.150000000000   
O      0.000000000000     0.870950000000     0.100000000000   
O      0.405900000000     0.905900000000     0.100000000000   
Si     0.440500000000     0.855050000000     0.100000000000   
O      0.129050000000     0.500000000000     0.100000000000   
O      0.094100000000     0.905900000000     0.100000000000   
Si     0.144950000000     0.940500000000     0.100000000000   
O      0.000000000000     0.629050000000     0.100000000000   
O      0.094100000000     0.594100000000     0.100000000000   
Si     0.059500000000     0.644950000000     0.100000000000   
O      0.370950000000     0.500000000000     0.100000000000   
O      0.405900000000     0.594100000000     0.100000000000   
Si     0.355050000000     0.559500000000     0.100000000000   
Si     0.440500000000     0.644950000000     0.100000000000   
Si     0.355050000000     0.940500000000     0.100000000000   
Si     0.059500000000     0.855050000000     0.100000000000   
Si     0.144950000000     0.559500000000     0.100000000000   
O      0.178350000000     0.571650000000     0.350000000000   
O      0.250000000000     0.620950000000     0.200000000000   
O      0.155900000000     0.655900000000     0.200000000000   
Si     0.190500000000     0.605050000000     0.200000000000   
O      0.428350000000     0.678350000000     0.350000000000   
O      0.379050000000     0.750000000000     0.200000000000   
O      0.344100000000     0.655900000000     0.200000000000   
Si     0.394950000000     0.690500000000     0.200000000000   
O      0.321650000000     0.928350000000     0.350000000000   
O      0.250000000000     0.879050000000     0.200000000000   
O      0.344100000000     0.844100000000     0.200000000000   
Si     0.309500000000     0.894950000000     0.200000000000   
O      0.071650000000     0.821650000000     0.350000000000   
O      0.120950000000     0.750000000000     0.200000000000   
O      0.155900000000     0.844100000000     0.200000000000   
Si     0.105050000000     0.809500000000     0.200000000000   
O      0.178350000000     0.928350000000     0.250000000000   
Si     0.190500000000     0.894950000000     0.200000000000   
O      0.071650000000     0.678350000000     0.250000000000   
Si     0.105050000000     0.690500000000     0.200000000000   
O      0.321650000000     0.571650000000     0.250000000000   
Si     0.309500000000     0.605050000000     0.200000000000   
O      0.428350000000     0.821650000000     0.250000000000   
Si     0.394950000000     0.809500000000     0.200000000000   
O      0.321650000000     0.928350000000     0.250000000000   
O      0.071650000000     0.821650000000     0.250000000000   
O      0.178350000000     0.571650000000     0.250000000000   
O      0.428350000000     0.678350000000     0.250000000000   
O      0.321650000000     0.571650000000     0.350000000000   
O      0.428350000000     0.821650000000     0.350000000000   
O      0.178350000000     0.928350000000     0.350000000000   
O      0.071650000000     0.678350000000     0.350000000000   
O      0.000000000000     0.870950000000     0.300000000000   
O      0.405900000000     0.905900000000     0.300000000000   
Si     0.440500000000     0.855050000000     0.300000000000   
O      0.129050000000     0.500000000000     0.300000000000   
O      0.094100000000     0.905900000000     0.300000000000   
Si     0.144950000000     0.940500000000     0.300000000000   
O      0.000000000000     0.629050000000     0.300000000000   
O      0.094100000000     0.594100000000     0.300000000000   
Si     0.059500000000     0.644950000000     0.300000000000   
O      0.370950000000     0.500000000000     0.300000000000   
O      0.405900000000     0.594100000000     0.300000000000   
Si     0.355050000000     0.559500000000     0.300000000000   
Si     0.440500000000     0.644950000000     0.300000000000   
Si     0.355050000000     0.940500000000     0.300000000000   
Si     0.059500000000     0.855050000000     0.300000000000   
Si     0.144950000000     0.559500000000     0.300000000000   
O      0.178350000000     0.571650000000     0.550000000000   
O      0.250000000000     0.620950000000     0.400000000000   
O      0.155900000000     0.655900000000     0.400000000000   
Si     0.190500000000     0.605050000000     0.400000000000   
O      0.428350000000     0.678350000000     0.550000000000   
O      0.379050000000     0.750000000000     0.400000000000   
O      0.344100000000     0.655900000000     0.400000000000   
Si     0.394950000000     0.690500000000     0.400000000000   
O      0.321650000000     0.928350000000     0.550000000000   
O      0.250000000000     0.879050000000     0.400000000000   
O      0.344100000000     0.844100000000     0.400000000000   
Si     0.309500000000     0.894950000000     0.400000000000   
O      0.071650000000     0.821650000000     0.550000000000   
O      0.120950000000     0.750000000000     0.400000000000   
O      0.155900000000     0.844100000000     0.400000000000   
Si     0.105050000000     0.809500000000     0.400000000000   
O      0.178350000000     0.928350000000     0.450000000000   
Si     0.190500000000     0.894950000000     0.400000000000   
O      0.071650000000     0.678350000000     0.450000000000   
Si     0.105050000000     0.690500000000     0.400000000000   
O      0.321650000000     0.571650000000     0.450000000000   
Si     0.309500000000     0.605050000000     0.400000000000   
O      0.428350000000     0.821650000000     0.450000000000   
Si     0.394950000000     0.809500000000     0.400000000000   
O      0.321650000000     0.928350000000     0.450000000000   
O      0.071650000000     0.821650000000     0.450000000000   
O      0.178350000000     0.571650000000     0.450000000000   
O      0.428350000000     0.678350000000     0.450000000000   
O      0.321650000000     0.571650000000     0.550000000000   
O      0.428350000000     0.821650000000     0.550000000000   
O      0.178350000000     0.928350000000     0.550000000000   
O      0.071650000000     0.678350000000     0.550000000000   
O      0.000000000000     0.870950000000     0.500000000000   
O      0.405900000000     0.905900000000     0.500000000000   
Si     0.440500000000     0.855050000000     0.500000000000   
O      0.129050000000     0.500000000000     0.500000000000   
O      0.094100000000     0.905900000000     0.500000000000   
Si     0.144950000000     0.940500000000     0.500000000000   
O      0.000000000000     0.629050000000     0.500000000000   
O      0.094100000000     0.594100000000     0.500000000000   
Si     0.059500000000     0.644950000000     0.500000000000   
O      0.370950000000     0.500000000000     0.500000000000   
O      0.405900000000     0.594100000000     0.500000000000   
Si     0.355050000000     0.559500000000     0.500000000000   
Si     0.440500000000     0.644950000000     0.500000000000   
Si     0.355050000000     0.940500000000     0.500000000000   
Si     0.059500000000     0.855050000000     0.500000000000   
Si     0.144950000000     0.559500000000     0.500000000000   
O      0.178350000000     0.571650000000     0.750000000000   
O      0.250000000000     0.620950000000     0.600000000000   
O      0.155900000000     0.655900000000     0.600000000000   
Si     0.190500000000     0.605050000000     0.600000000000   
O      0.428350000000     0.678350000000     0.750000000000   
O      0.379050000000     0.750000000000     0.600000000000   
O      0.344100000000     0.655900000000     0.600000000000   
Si     0.394950000000     0.690500000000     0.600000000000   
O      0.321650000000     0.928350000000     0.750000000000   
O      0.250000000000     0.879050000000     0.600000000000   
O      0.344100000000     0.844100000000     0.600000000000   
Si     0.309500000000     0.894950000000     0.600000000000   
O      0.071650000000     0.821650000000     0.750000000000   
O      0.120950000000     0.750000000000     0.600000000000   
O      0.155900000000     0.844100000000     0.600000000000   
Si     0.105050000000     0.809500000000     0.600000000000   
O      0.178350000000     0.928350000000     0.650000000000   
Si     0.190500000000     0.894950000000     0.600000000000   
O      0.071650000000     0.678350000000     0.650000000000   
Si     0.105050000000     0.690500000000     0.600000000000   
O      0.321650000000     0.571650000000     0.650000000000   
Si     0.309500000000     0.605050000000     0.600000000000   
O      0.428350000000     0.821650000000     0.650000000000   
Si     0.394950000000     0.809500000000     0.600000000000   
O      0.321650000000     0.928350000000     0.650000000000   
O      0.071650000000     0.821650000000     0.650000000000   
O      0.178350000000     0.571650000000     0.650000000000   
O      0.428350000000     0.678350000000     0.650000000000   
O      0.321650000000     0.571650000000     0.750000000000   
O      0.428350000000     0.821650000000     0.750000000000   
O      0.178350000000     0.928350000000     0.750000000000   
O      0.071650000000     0.678350000000     0.750000000000   
O      0.000000000000     0.870950000000     0.700000000000   
O      0.405900000000     0.905900000000     0.700000000000   
Si     0.440500000000     0.855050000000     0.700000000000   
O      0.129050000000     0.500000000000     0.700000000000   
O      0.094100000000     0.905900000000     0.700000000000   
Si     0.144950000000     0.940500000000     0.700000000000   
O      0.000000000000     0.629050000000     0.700000000000   
O      0.094100000000     0.594100000000     0.700000000000   
Si     0.059500000000     0.644950000000     0.700000000000   
O      0.370950000000     0.500000000000     0.700000000000   
O      0.405900000000     0.594100000000     0.700000000000   
Si     0.355050000000     0.559500000000     0.700000000000   
Si     0.440500000000     0.644950000000     0.700000000000   
Si     0.355050000000     0.940500000000     0.700000000000   
Si     0.059500000000     0.855050000000     0.700000000000   
Si     0.144950000000     0.559500000000     0.700000000000   
O      0.178350000000     0.571650000000     0.950000000000   
O      0.250000000000     0.620950000000     0.800000000000   
O      0.155900000000     0.655900000000     0.800000000000   
Si     0.190500000000     0.605050000000     0.800000000000   
O      0.428350000000     0.678350000000     0.950000000000   
O      0.379050000000     0.750000000000     0.800000000000   
O      0.344100000000     0.655900000000     0.800000000000   
Si     0.394950000000     0.690500000000     0.800000000000   
O      0.321650000000     0.928350000000     0.950000000000   
O      0.250000000000     0.879050000000     0.800000000000   
O      0.344100000000     0.844100000000     0.800000000000   
Si     0.309500000000     0.894950000000     0.800000000000   
O      0.071650000000     0.821650000000     0.950000000000   
O      0.120950000000     0.750000000000     0.800000000000   
O      0.155900000000     0.844100000000     0.800000000000   
Si     0.105050000000     0.809500000000     0.800000000000   
O      0.178350000000     0.928350000000     0.850000000000   
Si     0.190500000000     0.894950000000     0.800000000000   
O      0.071650000000     0.678350000000     0.850000000000   
Si     0.105050000000     0.690500000000     0.800000000000   
O      0.321650000000     0.571650000000     0.850000000000   
Si     0.309500000000     0.605050000000     0.800000000000   
O      0.428350000000     0.821650000000     0.850000000000   
Si     0.394950000000     0.809500000000     0.800000000000   
O      0.321650000000     0.928350000000     0.850000000000   
O      0.071650000000     0.821650000000     0.850000000000   
O      0.178350000000     0.571650000000     0.850000000000   
O      0.428350000000     0.678350000000     0.850000000000   
O      0.321650000000     0.571650000000     0.950000000000   
O      0.428350000000     0.821650000000     0.950000000000   
O      0.178350000000     0.928350000000     0.950000000000   
O      0.071650000000     0.678350000000     0.950000000000   
O      0.000000000000     0.870950000000     0.900000000000   
O      0.405900000000     0.905900000000     0.900000000000   
Si     0.440500000000     0.855050000000     0.900000000000   
O      0.129050000000     0.500000000000     0.900000000000   
O      0.094100000000     0.905900000000     0.900000000000   
Si     0.144950000000     0.940500000000     0.900000000000   
O      0.000000000000     0.629050000000     0.900000000000   
O      0.094100000000     0.594100000000     0.900000000000   