%BLOCK LATTICE_CART
ang    # angstrom units
  9.355000000000     0.000000000000     0.000000000000   
 -4.677500000000     8.101667652403     0.000000000000   
  0.000000000000     0.000000000000     14.862000000000  
%ENDBLOCK LATTICE_CART

%BLOCK POSITIONS_FRAC
O      0.208825000000     0.137775000000     0.164950000000   
O      0.004100000000     0.195825000000     0.105250000000   
O      0.164375000000     0.151600000000     0.223350000000   
O      0.205025000000     0.114050000000     0.249950000000   
Si     0.205250000000     0.148200000000     0.216850000000   
Si     0.116950000000     0.133050000000     0.208350000000   
Si     0.208325000000     0.166675000000     0.125000000000   
O      0.071050000000     0.208825000000     0.248283333333   
O      0.058275000000     0.004100000000     0.188583333333   
O      0.012775000000     0.164375000000     0.306683333333   
O      0.090975000000     0.205025000000     0.333283333333   
Si     0.057050000000     0.205250000000     0.300183333333   
Si     0.233900000000     0.116950000000     0.291683333333   
Si     0.041650000000     0.208325000000     0.208333333333   
O      0.112225000000     0.071050000000     0.331616666667   
O      0.054175000000     0.058275000000     0.271916666667   
O      0.098400000000     0.012775000000     0.390016666667   
O      0.135950000000     0.090975000000     0.416616666667   
Si     0.101800000000     0.057050000000     0.383516666667   
Si     0.116950000000     0.233900000000     0.375016666667   
Si     0.083325000000     0.041650000000     0.291666666667   
O      0.041175000000     0.112225000000     0.414950000000   
O      0.245900000000     0.054175000000     0.355250000000   
O      0.085625000000     0.098400000000     0.473350000000   
O      0.044975000000     0.135950000000     0.499950000000   
Si     0.044750000000     0.101800000000     0.466850000000   
Si     0.133050000000     0.116950000000     0.458350000000   
Si     0.041675000000     0.083325000000     0.375000000000   
O      0.178950000000     0.041175000000     0.498283333333   
O      0.191725000000     0.245900000000     0.438583333333   
O      0.237225000000     0.085625000000     0.056683333333   
O      0.159025000000     0.044975000000     0.083283333333   
Si     0.192950000000     0.044750000000     0.050183333333   
Si     0.016100000000     0.133050000000     0.041683333333   
Si     0.208350000000     0.041675000000     0.458333333333   
O      0.137775000000     0.178950000000     0.081616666667   
O      0.195825000000     0.191725000000     0.021916666667   
O      0.151600000000     0.237225000000     0.140016666667   
O      0.114050000000     0.159025000000     0.166616666667   
Si     0.148200000000     0.192950000000     0.133516666667   
Si     0.133050000000     0.016100000000     0.125016666667   
Si     0.166675000000     0.208350000000     0.041666666667   
O      0.112225000000     0.041175000000     0.251716666667   
O      0.054175000000     0.245900000000     0.311416666667   
O      0.098400000000     0.085625000000     0.193316666667   
O      0.135950000000     0.044975000000     0.166716666667   
Si     0.101800000000     0.044750000000     0.199816666667   
O      0.071050000000     0.112225000000     0.335050000000   
O      0.058275000000     0.054175000000     0.394750000000   
O      0.012775000000     0.098400000000     0.276650000000   
O      0.090975000000     0.135950000000     0.250050000000   
Si     0.057050000000     0.101800000000     0.283150000000   
O      0.208825000000     0.071050000000     0.418383333333   
O      0.004100000000     0.058275000000     0.478083333333   
O      0.164375000000     0.012775000000     0.359983333333   
O      0.205025000000     0.090975000000     0.333383333333   
Si     0.205250000000     0.057050000000     0.366483333333   
O      0.137775000000     0.208825000000     0.001716666667   
O      0.195825000000     0.004100000000     0.061416666667   
O      0.151600000000     0.164375000000     0.443316666667   
O      0.114050000000     0.205025000000     0.416716666667   
Si     0.148200000000     0.205250000000     0.449816666667   
O      0.178950000000     0.137775000000     0.085050000000   
O      0.191725000000     0.195825000000     0.144750000000   
O      0.237225000000     0.151600000000     0.026650000000   
O      0.159025000000     0.114050000000     0.000050000000   
Si     0.192950000000     0.148200000000     0.033150000000   
O      0.041175000000     0.178950000000     0.168383333333   
O      0.245900000000     0.191725000000     0.228083333333   
O      0.085625000000     0.237225000000     0.109983333333   
O      0.044975000000     0.159025000000     0.083383333333   
Si     0.044750000000     0.192950000000     0.116483333333   
O      0.208825000000     0.137775000000     0.664950000000   
O      0.004100000000     0.195825000000     0.605250000000   
O      0.164375000000     0.151600000000     0.723350000000   
O      0.205025000000     0.114050000000     0.749950000000   
Si     0.205250000000     0.148200000000     0.716850000000   
Si     0.116950000000     0.133050000000     0.708350000000   
Si     0.208325000000     0.166675000000     0.625000000000   
O      0.071050000000     0.208825000000     0.748283333333   
O      0.058275000000     0.004100000000     0.688583333333   
O      0.012775000000     0.164375000000     0.806683333333   
O      0.090975000000     0.205025000000     0.833283333333   
Si     0.057050000000     0.205250000000     0.800183333333   
Si     0.233900000000     0.116950000000     0.791683333333   
Si     0.041650000000     0.208325000000     0.708333333333   
O      0.112225000000     0.071050000000     0.831616666667   
O      0.054175000000     0.058275000000     0.771916666667   
O      0.098400000000     0.012775000000     0.890016666667   
O      0.135950000000     0.090975000000     0.916616666667   
Si     0.101800000000     0.057050000000     0.883516666667   
Si     0.116950000000     0.233900000000     0.875016666667   
Si     0.083325000000     0.041650000000     0.791666666667   
O      0.041175000000     0.112225000000     0.914950000000   
O      0.245900000000     0.054175000000     0.855250000000   
O      0.085625000000     0.098400000000     0.973350000000   
O      0.044975000000     0.135950000000     0.999950000000   
Si     0.044750000000     0.101800000000     0.966850000000   
Si     0.133050000000     0.116950000000     0.958350000000   
Si     0.041675000000     0.083325000000     0.875000000000   
O      0.178950000000     0.041175000000     0.998283333333   
O      0.191725000000     0.245900000000     0.938583333333   
O      0.237225000000     0.085625000000     0.556683333333   
O      0.159025000000     0.044975000000     0.583283333333   
Si     0.192950000000     0.044750000000     0.550183333333   
Si     0.016100000000     0.133050000000     0.541683333333   
Si     0.208350000000     0.041675000000     0.958333333333   
O      0.137775000000     0.178950000000     0.581616666667   
O      0.195825000000     0.191725000000     0.521916666667   
O      0.151600000000     0.237225000000     0.640016666667   
O      0.114050000000     0.159025000000     0.666616666667   
Si     0.148200000000     0.192950000000     0.633516666667   
Si     0.133050000000     0.016100000000     0.625016666667   
Si     0.166675000000     0.208350000000     0.541666666667   
O      0.112225000000     0.041175000000     0.751716666667   
O      0.054175000000     0.245900000000     0.811416666667   
O      0.098400000000     0.085625000000     0.693316666667   
O      0.135950000000     0.044975000000     0.666716666667   
Si     0.101800000000     0.044750000000     0.699816666667   
O      0.071050000000     0.112225000000     0.835050000000   
O      0.058275000000     0.054175000000     0.894750000000   
O      0.012775000000     0.098400000000     0.776650000000   
O      0.090975000000     0.135950000000     0.750050000000   
Si     0.057050000000     0.101800000000     0.783150000000   
O      0.208825000000     0.071050000000     0.918383333333   
O      0.004100000000     0.058275000000     0.978083333333   
O      0.164375000000     0.012775000000     0.859983333333   
O      0.205025000000     0.090975000000     0.833383333333   
Si     0.205250000000     0.057050000000     0.866483333333   
O      0.137775000000     0.208825000000     0.501716666667   
O      0.195825000000     0.004100000000     0.561416666667   
O      0.151600000000     0.164375000000     0.943316666667   
O      0.114050000000     0.205025000000     0.916716666667   
Si     0.148200000000     0.205250000000     0.949816666667   
O      0.178950000000     0.137775000000     0.585050000000   
O      0.191725000000     0.195825000000     0.644750000000   
O      0.237225000000     0.151600000000     0.526650000000   
O      0.159025000000     0.114050000000     0.500050000000   
Si     0.192950000000     0.148200000000     0.533150000000   
O      0.041175000000     0.178950000000     0.668383333333   
O      0.245900000000     0.191725000000     0.728083333333   
O      0.085625000000     0.237225000000     0.609983333333   
O      0.044975000000     0.159025000000     0.583383333333   
Si     0.044750000000     0.192950000000     0.616483333333   
O      0.208825000000     0.387775000000     0.164950000000   
O      0.004100000000     0.445825000000     0.105250000000   
O      0.164375000000     0.401600000000     0.223350000000   
O      0.205025000000     0.364050000000     0.249950000000   
Si     0.205250000000     0.398200000000     0.216850000000   
Si     0.116950000000     0.383050000000     0.208350000000   
Si     0.208325000000     0.416675000000     0.125000000000   
O      0.071050000000     0.458825000000     0.248283333333   
O      0.058275000000     0.254100000000     0.188583333333   
O      0.012775000000     0.414375000000     0.306683333333   
O      0.090975000000     0.455025000000     0.333283333333   
Si     0.057050000000     0.455250000000     0.300183333333   
Si     0.233900000000     0.366950000000     0.291683333333   
Si     0.041650000000     0.458325000000     0.208333333333   
O      0.112225000000     0.321050000000     0.331616666667   
O      0.054175000000     0.308275000000     0.271916666667   
O      0.098400000000     0.262775000000     0.390016666667   
O      0.135950000000     0.340975000000     0.416616666667   
Si     0.101800000000     0.307050000000     0.383516666667   
Si     0.116950000000     0.483900000000     0.375016666667   
Si     0.083325000000     0.291650000000     0.291666666667   
O      0.041175000000     0.362225000000     0.414950000000   
O      0.245900000000     0.304175000000     0.355250000000   
O      0.085625000000     0.348400000000     0.473350000000   
O      0.044975000000     0.385950000000     0.499950000000   
Si     0.044750000000     0.351800000000     0.466850000000   
Si     0.133050000000     0.366950000000     0.458350000000   
Si     0.041675000000     0.333325000000     0.375000000000   
O      0.178950000000     0.291175000000     0.498283333333   
O      0.191725000000     0.495900000000     0.438583333333   
O      0.237225000000     0.335625000000     0.056683333333   
O      0.159025000000     0.294975000000     0.083283333333   
Si     0.192950000000     0.294750000000     0.050183333333   
Si     0.016100000000     0.383050000000     0.041683333333   
Si     0.208350000000     0.291675000000     0.458333333333   
O      0.137775000000     0.428950000000     0.081616666667   
O      0.195825000000     0.441725000000     0.021916666667   
O      0.151600000000     0.487225000000     0.140016666667   
O      0.114050000000     0.409025000000     0.166616666667   
Si     0.148200000000     0.442950000000     0.133516666667   
Si     0.133050000000     0.266100000000     0.125016666667   
Si     0.166675000000     0.458350000000     0.041666666667   
O      0.112225000000     0.291175000000     0.251716666667   
O      0.054175000000     0.495900000000     0.311416666667   
O      0.098400000000     0.335625000000     0.193316666667   
O      0.135950000000     0.294975000000     0.166716666667   
Si     0.101800000000     0.294750000000     0.199816666667   
O      0.071050000000     0.362225000000     0.335050000000   
O      0.058275000000     0.304175000000     0.394750000000   
O      0.012775000000     0.348400000000     0.276650000000   
O      0.090975000000     0.385950000000     0.250050000000   
Si     0.057050000000     0.351800000000     0.283150000000   
O      0.208825000000     0.321050000000     0.418383333333   
O      0.004100000000     0.308275000000     0.478083333333   
O      0.164375000000     0.262775000000     0.359983333333   
O      0.205025000000     0.340975000000     0.333383333333   
Si     0.205250000000     0.307050000000     0.366483333333   
O      0.137775000000     0.458825000000     0.001716666667   
O      0.195825000000     0.254100000000     0.061416666667   
O      0.151600000000     0.414375000000     0.443316666667   
O      0.114050000000     0.455025000000     0.416716666667   
Si     0.148200000000     0.455250000000     0.449816666667   
O      0.178950000000     0.387775000000     0.085050000000   
O      0.191725000000     0.445825000000     0.144750000000   
O      0.237225000000     0.401600000000     0.026650000000   
O      0.159025000000     0.364050000000     0.000050000000   
Si     0.192950000000     0.398200000000     0.033150000000   
O      0.041175000000     0.428950000000     0.168383333333   
O      0.245900000000     0.441725000000     0.228083333333   
O      0.085625000000     0.487225000000     0.109983333333   
O      0.044975000000     0.409025000000     0.083383333333   
Si     0.044750000000     0.442950000000     0.116483333333   
O      0.208825000000     0.387775000000     0.664950000000   
O      0.004100000000     0.445825000000     0.605250000000   
O      0.164375000000     0.401600000000     0.723350000000   
O      0.205025000000     0.364050000000     0.749950000000   
Si     0.205250000000     0.398200000000     0.716850000000   
Si     0.116950000000     0.383050000000     0.708350000000   
Si     0.208325000000     0.416675000000     0.625000000000   
O      0.071050000000     0.458825000000     0.748283333333   
O      0.058275000000     0.254100000000     0.688583333333   
O      0.012775000000     0.414375000000     0.806683333333   
O      0.090975000000     0.455025000000     0.833283333333   
Si     0.057050000000     0.455250000000     0.800183333333   
Si     0.233900000000     0.366950000000     0.791683333333   
Si     0.041650000000     0.458325000000     0.708333333333   
O      0.112225000000     0.321050000000     0.831616666667   
O      0.054175000000     0.308275000000     0.771916666667   
O      0.098400000000     0.262775000000     0.890016666667   
O      0.135950000000     0.340975000000     0.916616666667   
Si     0.101800000000     0.307050000000     0.883516666667   
Si     0.116950000000     0.483900000000     0.875016666667   
Si     0.083325000000     0.291650000000     0.791666666667   
O      0.041175000000     0.362225000000     0.914950000000   
O      0.245900000000     0.304175000000     0.855250000000   
O      0.085625000000     0.348400000000     0.973350000000   
O      0.044975000000     0.385950000000     0.999950000000   
Si     0.044750000000     0.351800000000     0.966850000000   
Si     0.133050000000     0.366950000000     0.958350000000   
Si     0.041675000000     0.333325000000     0.875000000000   
O      0.178950000000     0.291175000000     0.998283333333   
O      0.191725000000     0.495900000000     0.938583333333   
O      0.237225000000     0.335625000000     0.556683333333   
O      0.159025000000     0.294975000000     0.583283333333   
Si     0.192950000000     0.294750000000     0.550183333333   
Si     0.016100000000     0.383050000000     0.541683333333   
Si     0.208350000000     0.291675000000     0.958333333333   
O      0.137775000000     0.428950000000     0.581616666667   
O      0.195825000000     0.441725000000     0.521916666667   
O      0.151600000000     0.487225000000     0.640016666667   
O      0.114050000000     0.409025000000     0.666616666667   
Si     0.148200000000     0.442950000000     0.633516666667   
Si     0.133050000000     0.266100000000     0.625016666667   
Si     0.166675000000     0.458350000000     0.541666666667   
O      0.112225000000     0.291175000000     0.751716666667   
O      0.054175000000     0.495900000000     0.811416666667   
O      0.098400000000     0.335625000000     0.693316666667   
O      0.135950000000     0.294975000000     0.666716666667   
Si     0.101800000000     0.294750000000     0.699816666667   
O      0.071050000000     0.362225000000     0.835050000000   
O      0.058275000000     0.304175000000     0.894750000000   
O      0.012775000000     0.348400000000     0.776650000000   
O      0.090975000000     0.385950000000     0.750050000000   
Si     0.057050000000     0.351800000000     0.783150000000   
O      0.208825000000     0.321050000000     0.918383333333   
O      0.004100000000     0.308275000000     0.978083333333   
O      0.164375000000     0.262775000000     0.859983333333   
O      0.205025000000     0.340975000000     0.833383333333   
Si     0.205250000000     0.307050000000     0.866483333333   
O      0.137775000000     0.458825000000     0.501716666667   
O      0.195825000000     0.254100000000     0.561416666667   
O      0.151600000000     0.414375000000     0.943316666667   
O      0.114050000000     0.455025000000     0.916716666667   
Si     0.148200000000     0.455250000000     0.949816666667   
O      0.178950000000     0.387775000000     0.585050000000   
O      0.191725000000     0.445825000000     0.644750000000   
O      0.237225000000     0.401600000000     0.526650000000   
O      0.159025000000     0.364050000000     0.500050000000   
Si     0.192950000000     0.398200000000     0.533150000000   
O      0.041175000000     0.428950000000     0.668383333333   
O      0.245900000000     0.441725000000     0.728083333333   
O      0.085625000000     0.487225000000     0.609983333333   
O      0.044975000000     0.409025000000     0.583383333333   
Si     0.044750000000     0.442950000000     0.616483333333   
O      0.208825000000     0.637775000000     0.164950000000   
O      0.004100000000     0.695825000000     0.105250000000   
O      0.164375000000     0.651600000000     0.223350000000   
O      0.205025000000     0.614050000000     0.249950000000   
Si     0.205250000000     0.648200000000     0.216850000000   
Si     0.116950000000     0.633050000000     0.208350000000   
Si     0.208325000000     0.666675000000     0.125000000000   
O      0.071050000000     0.708825000000     0.248283333333   
O      0.058275000000     0.504100000000     0.188583333333   
O      0.012775000000     0.664375000000     0.306683333333   
O      0.090975000000     0.705025000000     0.333283333333   
Si     0.057050000000     0.705250000000     0.300183333333   
Si     0.233900000000     0.616950000000     0.291683333333   
Si     0.041650000000     0.708325000000     0.208333333333   
O      0.112225000000     0.571050000000     0.331616666667   
O      0.054175000000     0.558275000000     0.271916666667   
O      0.098400000000     0.512775000000     0.390016666667   
O      0.135950000000     0.590975000000     0.416616666667   
Si     0.101800000000     0.557050000000     0.383516666667   
Si     0.116950000000     0.733900000000     0.375016666667   
Si     0.083325000000     0.541650000000     0.291666666667   
O      0.041175000000     0.612225000000     0.414950000000   
O      0.245900000000     0.554175000000     0.355250000000   
O      0.085625000000     0.598400000000     0.473350000000   
O      0.044975000000     0.635950000000     0.499950000000   
Si     0.044750000000     0.601800000000     0.466850000000   
Si     0.133050000000     0.616950000000     0.458350000000   
Si     0.041675000000     0.583325000000     0.375000000000   
O      0.178950000000     0.541175000000     0.498283333333   
O      0.191725000000     0.745900000000     0.438583333333   
O      0.237225000000     0.585625000000     0.056683333333   
O      0.159025000000     0.544975000000     0.083283333333   
Si     0.192950000000     0.544750000000     0.050183333333   
Si     0.016100000000     0.633050000000     0.041683333333   
Si     0.208350000000     0.541675000000     0.458333333333   
O      0.137775000000     0.678950000000     0.081616666667   
O      0.195825000000     0.691725000000     0.021916666667   
O      0.151600000000     0.737225000000     0.140016666667   
O      0.114050000000     0.659025000000     0.166616666667   
Si     0.148200000000     0.692950000000     0.133516666667   
Si     0.133050000000     0.516100000000     0.125016666667   
Si     0.166675000000     0.708350000000     0.041666666667   
O      0.112225000000     0.541175000000     0.251716666667   
O      0.054175000000     0.745900000000     0.311416666667   
O      0.098400000000     0.585625000000     0.193316666667   
O      0.135950000000     0.544975000000     0.166716666667   
Si     0.101800000000     0.544750000000     0.199816666667   
O      0.071050000000     0.612225000000     0.335050000000   
O      0.058275000000     0.554175000000     0.394750000000   
O      0.012775000000     0.598400000000     0.276650000000   
O      0.090975000000     0.635950000000     0.250050000000   
Si     0.057050000000     0.601800000000     0.283150000000   
O      0.208825000000     0.571050000000     0.418383333333   
O      0.004100000000     0.558275000000     0.478083333333   
O      0.164375000000     0.512775000000     0.359983333333   
O      0.205025000000     0.590975000000     0.333383333333   
Si     0.205250000000     0.557050000000     0.366483333333   
O      0.137775000000     0.708825000000     0.001716666667   
O      0.195825000000     0.504100000000     0.061416666667   
O      0.151600000000     0.664375000000     0.443316666667   
O      0.114050000000     0.705025000000     0.416716666667   
Si     0.148200000000     0.705250000000     0.449816666667   
O      0.178950000000     0.637775000000     0.085050000000   
O      0.191725000000     0.695825000000     0.144750000000   
O      0.237225000000     0.651600000000     0.026650000000   
O      0.159025000000     0.614050000000     0.000050000000   
Si     0.192950000000     0.648200000000     0.033150000000   
O      0.041175000000     0.678950000000     0.168383333333   
O      0.245900000000     0.691725000000     0.228083333333   
O      0.085625000000     0.737225000000     0.109983333333   
O      0.044975000000     0.659025000000     0.083383333333   
Si     0.044750000000     0.692950000000     0.116483333333   
O      0.208825000000     0.637775000000     0.664950000000   
O      0.004100000000     0.695825000000     0.605250000000   
O      0.164375000000     0.651600000000     0.723350000000   
O      0.205025000000     0.614050000000     0.749950000000   
Si     0.205250000000     0.648200000000     0.716850000000   
Si     0.116950000000     0.633050000000     0.708350000000   
Si     0.208325000000     0.666675000000     0.625000000000   
O      0.071050000000     0.708825000000     0.748283333333   
O      0.058275000000     0.504100000000     0.688583333333   
O      0.012775000000     0.664375000000     0.806683333333   
O      0.090975000000     0.705025000000     0.833283333333   
Si     0.057050000000     0.705250000000     0.800183333333   
Si     0.233900000000     0.616950000000     0.791683333333   
Si     0.041650000000     0.708325000000     0.708333333333   
O      0.112225000000     0.571050000000     0.831616666667   
O      0.054175000000     0.558275000000     0.771916666667   
O      0.098400000000     0.512775000000     0.890016666667   
O      0.135950000000     0.590975000000     0.916616666667   
Si     0.101800000000     0.557050000000     0.883516666667   
Si     0.116950000000     0.733900000000     0.875016666667   
Si     0.083325000000     0.541650000000     0.791666666667   
O      0.041175000000     0.612225000000     0.914950000000   
O      0.245900000000     0.554175000000     0.855250000000   
O      0.085625000000     0.598400000000     0.973350000000   
O      0.044975000000     0.635950000000     0.999950000000   
Si     0.044750000000     0.601800000000     0.966850000000   
Si     0.133050000000     0.616950000000     0.958350000000   
Si     0.041675000000     0.583325000000     0.875000000000   
O      0.178950000000     0.541175000000     0.998283333333   
O      0.191725000000     0.745900000000     0.938583333333   
O      0.237225000000     0.585625000000     0.556683333333   
O      0.159025000000     0.544975000000     0.583283333333   
Si     0.192950000000     0.544750000000     0.550183333333   
Si     0.016100000000     0.633050000000     0.541683333333   
Si     0.208350000000     0.541675000000     0.958333333333   
O      0.137775000000     0.678950000000     0.581616666667   
O      0.195825000000     0.691725000000     0.521916666667   
O      0.151600000000     0.737225000000     0.640016666667   
O      0.114050000000     0.659025000000     0.666616666667   
Si     0.148200000000     0.692950000000     0.633516666667   
Si     0.133050000000     0.516100000000     0.625016666667   
Si     0.166675000000     0.708350000000     0.541666666667   
O      0.112225000000     0.541175000000     0.751716666667   
O      0.054175000000     0.745900000000     0.811416666667   
O      0.098400000000     0.585625000000     0.693316666667   
O      0.135950000000     0.544975000000     0.666716666667   
Si     0.101800000000     0.544750000000     0.699816666667   
O      0.071050000000     0.612225000000     0.835050000000   
O      0.058275000000     0.554175000000     0.894750000000   
O      0.012775000000     0.598400000000     0.776650000000   
O      0.090975000000     0.635950000000     0.750050000000   
Si     0.057050000000     0.601800000000     0.783150000000   
O      0.208825000000     0.571050000000     0.918383333333   
O      0.004100000000     0.558275000000     0.978083333333   
O      0.164375000000     0.512775000000     0.859983333333   
O      0.205025000000     0.590975000000     0.833383333333   
Si     0.205250000000     0.557050000000     0.866483333333   
O      0.137775000000     0.708825000000     0.501716666667   
O      0.195825000000     0.504100000000     0.561416666667   
O      0.151600000000     0.664375000000     0.943316666667   
O      0.114050000000     0.705025000000     0.916716666667   
Si     0.148200000000     0.705250000000     0.949816666667   
O      0.178950000000     0.637775000000     0.585050000000   
O      0.191725000000     0.695825000000     0.644750000000   
O      0.237225000000     0.651600000000     0.526650000000   
O      0.159025000000     0.614050000000     0.500050000000   
Si     0.192950000000     0.648200000000     0.533150000000   
O      0.041175000000     0.678950000000     0.668383333333   
O      0.245900000000     0.691725000000     0.728083333333   
O      0.085625000000     0.737225000000     0.609983333333   
O      0.044975000000     0.659025000000     0.583383333333   
Si     0.044750000000     0.692950000000     0.616483333333   
O      0.208825000000     0.887775000000     0.164950000000   
O      0.004100000000     0.945825000000     0.105250000000   
O      0.164375000000     0.901600000000     0.223350000000   
O      0.205025000000     0.864050000000     0.249950000000   
Si     0.205250000000     0.898200000000     0.216850000000   
Si     0.116950000000     0.883050000000     0.208350000000   
Si     0.208325000000     0.916675000000     0.125000000000   
O      0.071050000000     0.958825000000     0.248283333333   
O      0.058275000000     0.754100000000     0.188583333333   
O      0.012775000000     0.914375000000     0.306683333333   
O      0.090975000000     0.955025000000     0.333283333333   
Si     0.057050000000     0.955250000000     0.300183333333   
Si     0.233900000000     0.866950000000     0.291683333333   
Si     0.041650000000     0.958325000000     0.208333333333   
O      0.112225000000     0.821050000000     0.331616666667   
O      0.054175000000     0.808275000000     0.271916666667   
O      0.098400000000     0.762775000000     0.390016666667   
O      0.135950000000     0.840975000000     0.416616666667   
Si     0.101800000000     0.807050000000     0.383516666667   
Si     0.116950000000     0.983900000000     0.375016666667   
Si     0.083325000000     0.791650000000     0.291666666667   
O      0.041175000000     0.862225000000     0.414950000000   
O      0.245900000000     0.804175000000     0.355250000000   
O      0.085625000000     0.848400000000     0.473350000000   
O      0.044975000000     0.885950000000     0.499950000000   
Si     0.044750000000     0.851800000000     0.466850000000   
Si     0.133050000000     0.866950000000     0.458350000000   
Si     0.041675000000     0.833325000000     0.375000000000   
O      0.178950000000     0.791175000000     0.498283333333   
O      0.191725000000     0.995900000000     0.438583333333   
O      0.237225000000     0.835625000000     0.056683333333   
O      0.159025000000     0.794975000000     0.083283333333   
Si     0.192950000000     0.794750000000     0.050183333333   
Si     0.016100000000     0.883050000000     0.041683333333   
Si     0.208350000000     0.791675000000     0.458333333333   
O      0.137775000000     0.928950000000     0.081616666667   
O      0.195825000000     0.941725000000     0.021916666667   
O      0.151600000000     0.987225000000     0.140016666667   
O      0.114050000000     0.909025000000     0.166616666667   
Si     0.148200000000     0.942950000000     0.133516666667   