%BLOCK LATTICE_CART
ang    # angstrom units
  14.190000000000    0.000000000000     0.000000000000   
 -7.095000000000     12.288900479701    0.000000000000   
  0.000000000000     0.000000000000     11.499000000000  
%ENDBLOCK LATTICE_CART

%BLOCK POSITIONS_FRAC
O      0.131733333333     0.096433333333     0.101166666667   
O      0.112400000000     0.056200000000     0.038000000000   
O      0.180900000000     0.090466666667     0.061633333333   
O      0.121966666667     0.000000000000     0.166666666667   
O      0.166666666667     0.000000000000     0.113800000000   
O      0.061800000000     0.000000000000     0.000000000000   
O      0.111100000000     0.222233333333     0.000000000000   
Si     0.139100000000     0.069566666667     0.074866666667   
Si     0.129366666667     0.000000000000     0.120966666667   
Si     0.086966666667     0.043466666667     0.000000000000   
Si     0.111100000000     0.222233333333     0.046600000000   
O      0.035300000000     0.131733333333     0.101166666667   
O      0.056200000000     0.112400000000     0.038000000000   
O      0.090433333333     0.180900000000     0.061633333333   
O      0.121966666667     0.121966666667     0.166666666667   
O      0.166666666667     0.166666666667     0.113800000000   
O      0.061800000000     0.061800000000     0.000000000000   
O      0.222200000000     0.111100000000     0.000000000000   
Si     0.069533333333     0.139100000000     0.074866666667   
Si     0.129366666667     0.129366666667     0.120966666667   
Si     0.043500000000     0.086966666667     0.000000000000   
Si     0.222200000000     0.111100000000     0.046600000000   
O      0.236900000000     0.035300000000     0.101166666667   
O      0.277133333333     0.056200000000     0.038000000000   
O      0.242866666667     0.090433333333     0.061633333333   
O      0.000000000000     0.121966666667     0.166666666667   
O      0.000000000000     0.166666666667     0.113800000000   
O      0.000000000000     0.061800000000     0.000000000000   
Si     0.263766666667     0.069533333333     0.074866666667   
Si     0.000000000000     0.129366666667     0.120966666667   
Si     0.289866666667     0.043500000000     0.000000000000   
O      0.201600000000     0.236900000000     0.101166666667   
O      0.220933333333     0.277133333333     0.038000000000   
O      0.152433333333     0.242866666667     0.061633333333   
O      0.211366666667     0.000000000000     0.166666666667   
O      0.271533333333     0.000000000000     0.000000000000   
Si     0.194233333333     0.263766666667     0.074866666667   
Si     0.203966666667     0.000000000000     0.120966666667   
Si     0.246366666667     0.289866666667     0.000000000000   
O      0.298033333333     0.201600000000     0.101166666667   
O      0.277133333333     0.220933333333     0.038000000000   
O      0.242900000000     0.152433333333     0.061633333333   
O      0.211366666667     0.211366666667     0.166666666667   
O      0.271533333333     0.271533333333     0.000000000000   
Si     0.263800000000     0.194233333333     0.074866666667   
Si     0.203966666667     0.203966666667     0.120966666667   
Si     0.289833333333     0.246366666667     0.000000000000   
O      0.096433333333     0.298033333333     0.101166666667   
O      0.056200000000     0.277133333333     0.038000000000   
O      0.090466666667     0.242900000000     0.061633333333   
O      0.000000000000     0.211366666667     0.166666666667   
O      0.000000000000     0.271533333333     0.000000000000   
Si     0.069566666667     0.263800000000     0.074866666667   
Si     0.000000000000     0.203966666667     0.120966666667   
Si     0.043466666667     0.289833333333     0.000000000000   
O      0.236900000000     0.201600000000     0.232166666667   
O      0.277133333333     0.220933333333     0.295333333333   
O      0.242866666667     0.152433333333     0.271700000000   
O      0.000000000000     0.166666666667     0.219533333333   
Si     0.263766666667     0.194233333333     0.258466666667   
Si     0.000000000000     0.203966666667     0.212366666667   
Si     0.111100000000     0.222233333333     0.286733333333   
O      0.035300000000     0.236900000000     0.232166666667   
O      0.056200000000     0.277133333333     0.295333333333   
O      0.090433333333     0.242866666667     0.271700000000   
O      0.166666666667     0.000000000000     0.219533333333   
Si     0.069533333333     0.263766666667     0.258466666667   
Si     0.129366666667     0.000000000000     0.212366666667   
Si     0.222200000000     0.111100000000     0.286733333333   
O      0.131733333333     0.035300000000     0.232166666667   
O      0.112400000000     0.056200000000     0.295333333333   
O      0.180900000000     0.090433333333     0.271700000000   
O      0.166666666667     0.166666666667     0.219533333333   
Si     0.139100000000     0.069533333333     0.258466666667   
Si     0.129366666667     0.129366666667     0.212366666667   
O      0.096433333333     0.131733333333     0.232166666667   
O      0.056200000000     0.112400000000     0.295333333333   
O      0.090466666667     0.180900000000     0.271700000000   
Si     0.069566666667     0.139100000000     0.258466666667   
Si     0.000000000000     0.129366666667     0.212366666667   
O      0.298033333333     0.096433333333     0.232166666667   
O      0.277133333333     0.056200000000     0.295333333333   
O      0.242900000000     0.090466666667     0.271700000000   
Si     0.263800000000     0.069566666667     0.258466666667   
Si     0.203966666667     0.000000000000     0.212366666667   
O      0.201600000000     0.298033333333     0.232166666667   
O      0.220933333333     0.277133333333     0.295333333333   
O      0.152433333333     0.242900000000     0.271700000000   
Si     0.194233333333     0.263800000000     0.258466666667   
Si     0.203966666667     0.203966666667     0.212366666667   
O      0.201600000000     0.236900000000     0.232166666667   
O      0.298033333333     0.201600000000     0.232166666667   
O      0.096433333333     0.298033333333     0.232166666667   
O      0.131733333333     0.096433333333     0.232166666667   
O      0.035300000000     0.131733333333     0.232166666667   
O      0.236900000000     0.035300000000     0.232166666667   
O      0.096433333333     0.131733333333     0.101166666667   
O      0.298033333333     0.096433333333     0.101166666667   
O      0.201600000000     0.298033333333     0.101166666667   
O      0.236900000000     0.201600000000     0.101166666667   
O      0.035300000000     0.236900000000     0.101166666667   
O      0.131733333333     0.035300000000     0.101166666667   
O      0.131733333333     0.096433333333     0.434500000000   
O      0.112400000000     0.056200000000     0.371333333333   
O      0.180900000000     0.090466666667     0.394966666667   
O      0.121966666667     0.000000000000     0.500000000000   
O      0.166666666667     0.000000000000     0.447133333333   
O      0.061800000000     0.000000000000     0.333333333333   
O      0.111100000000     0.222233333333     0.333333333333   
Si     0.139100000000     0.069566666667     0.408200000000   
Si     0.129366666667     0.000000000000     0.454300000000   
Si     0.086966666667     0.043466666667     0.333333333333   
Si     0.111100000000     0.222233333333     0.379933333333   
O      0.035300000000     0.131733333333     0.434500000000   
O      0.056200000000     0.112400000000     0.371333333333   
O      0.090433333333     0.180900000000     0.394966666667   
O      0.121966666667     0.121966666667     0.500000000000   
O      0.166666666667     0.166666666667     0.447133333333   
O      0.061800000000     0.061800000000     0.333333333333   
O      0.222200000000     0.111100000000     0.333333333333   
Si     0.069533333333     0.139100000000     0.408200000000   
Si     0.129366666667     0.129366666667     0.454300000000   
Si     0.043500000000     0.086966666667     0.333333333333   
Si     0.222200000000     0.111100000000     0.379933333333   
O      0.236900000000     0.035300000000     0.434500000000   
O      0.277133333333     0.056200000000     0.371333333333   
O      0.242866666667     0.090433333333     0.394966666667   
O      0.000000000000     0.121966666667     0.500000000000   
O      0.000000000000     0.166666666667     0.447133333333   
O      0.000000000000     0.061800000000     0.333333333333   
Si     0.263766666667     0.069533333333     0.408200000000   
Si     0.000000000000     0.129366666667     0.454300000000   
Si     0.289866666667     0.043500000000     0.333333333333   
O      0.201600000000     0.236900000000     0.434500000000   
O      0.220933333333     0.277133333333     0.371333333333   
O      0.152433333333     0.242866666667     0.394966666667   
O      0.211366666667     0.000000000000     0.500000000000   
O      0.271533333333     0.000000000000     0.333333333333   
Si     0.194233333333     0.263766666667     0.408200000000   
Si     0.203966666667     0.000000000000     0.454300000000   
Si     0.246366666667     0.289866666667     0.333333333333   
O      0.298033333333     0.201600000000     0.434500000000   
O      0.277133333333     0.220933333333     0.371333333333   
O      0.242900000000     0.152433333333     0.394966666667   
O      0.211366666667     0.211366666667     0.500000000000   
O      0.271533333333     0.271533333333     0.333333333333   
Si     0.263800000000     0.194233333333     0.408200000000   
Si     0.203966666667     0.203966666667     0.454300000000   
Si     0.289833333333     0.246366666667     0.333333333333   
O      0.096433333333     0.298033333333     0.434500000000   
O      0.056200000000     0.277133333333     0.371333333333   
O      0.090466666667     0.242900000000     0.394966666667   
O      0.000000000000     0.211366666667     0.500000000000   
O      0.000000000000     0.271533333333     0.333333333333   
Si     0.069566666667     0.263800000000     0.408200000000   
Si     0.000000000000     0.203966666667     0.454300000000   
Si     0.043466666667     0.289833333333     0.333333333333   
O      0.236900000000     0.201600000000     0.565500000000   
O      0.277133333333     0.220933333333     0.628666666667   
O      0.242866666667     0.152433333333     0.605033333333   
O      0.000000000000     0.166666666667     0.552866666667   
Si     0.263766666667     0.194233333333     0.591800000000   
Si     0.000000000000     0.203966666667     0.545700000000   
Si     0.111100000000     0.222233333333     0.620066666667   
O      0.035300000000     0.236900000000     0.565500000000   
O      0.056200000000     0.277133333333     0.628666666667   
O      0.090433333333     0.242866666667     0.605033333333   
O      0.166666666667     0.000000000000     0.552866666667   
Si     0.069533333333     0.263766666667     0.591800000000   
Si     0.129366666667     0.000000000000     0.545700000000   
Si     0.222200000000     0.111100000000     0.620066666667   
O      0.131733333333     0.035300000000     0.565500000000   
O      0.112400000000     0.056200000000     0.628666666667   
O      0.180900000000     0.090433333333     0.605033333333   
O      0.166666666667     0.166666666667     0.552866666667   
Si     0.139100000000     0.069533333333     0.591800000000   
Si     0.129366666667     0.129366666667     0.545700000000   
O      0.096433333333     0.131733333333     0.565500000000   
O      0.056200000000     0.112400000000     0.628666666667   
O      0.090466666667     0.180900000000     0.605033333333   
Si     0.069566666667     0.139100000000     0.591800000000   
Si     0.000000000000     0.129366666667     0.545700000000   
O      0.298033333333     0.096433333333     0.565500000000   
O      0.277133333333     0.056200000000     0.628666666667   
O      0.242900000000     0.090466666667     0.605033333333   
Si     0.263800000000     0.069566666667     0.591800000000   
Si     0.203966666667     0.000000000000     0.545700000000   
O      0.201600000000     0.298033333333     0.565500000000   
O      0.220933333333     0.277133333333     0.628666666667   
O      0.152433333333     0.242900000000     0.605033333333   
Si     0.194233333333     0.263800000000     0.591800000000   
Si     0.203966666667     0.203966666667     0.545700000000   
O      0.201600000000     0.236900000000     0.565500000000   
O      0.298033333333     0.201600000000     0.565500000000   
O      0.096433333333     0.298033333333     0.565500000000   
O      0.131733333333     0.096433333333     0.565500000000   
O      0.035300000000     0.131733333333     0.565500000000   
O      0.236900000000     0.035300000000     0.565500000000   
O      0.096433333333     0.131733333333     0.434500000000   
O      0.298033333333     0.096433333333     0.434500000000   
O      0.201600000000     0.298033333333     0.434500000000   
O      0.236900000000     0.201600000000     0.434500000000   
O      0.035300000000     0.236900000000     0.434500000000   
O      0.131733333333     0.035300000000     0.434500000000   
O      0.131733333333     0.096433333333     0.767833333333   
O      0.112400000000     0.056200000000     0.704666666667   
O      0.180900000000     0.090466666667     0.728300000000   
O      0.121966666667     0.000000000000     0.833333333333   
O      0.166666666667     0.000000000000     0.780466666667   
O      0.061800000000     0.000000000000     0.666666666667   
O      0.111100000000     0.222233333333     0.666666666667   
Si     0.139100000000     0.069566666667     0.741533333333   
Si     0.129366666667     0.000000000000     0.787633333333   
Si     0.086966666667     0.043466666667     0.666666666667   
Si     0.111100000000     0.222233333333     0.713266666667   
O      0.035300000000     0.131733333333     0.767833333333   
O      0.056200000000     0.112400000000     0.704666666667   
O      0.090433333333     0.180900000000     0.728300000000   
O      0.121966666667     0.121966666667     0.833333333333   
O      0.166666666667     0.166666666667     0.780466666667   
O      0.061800000000     0.061800000000     0.666666666667   
O      0.222200000000     0.111100000000     0.666666666667   
Si     0.069533333333     0.139100000000     0.741533333333   
Si     0.129366666667     0.129366666667     0.787633333333   
Si     0.043500000000     0.086966666667     0.666666666667   
Si     0.222200000000     0.111100000000     0.713266666667   
O      0.236900000000     0.035300000000     0.767833333333   
O      0.277133333333     0.056200000000     0.704666666667   
O      0.242866666667     0.090433333333     0.728300000000   
O      0.000000000000     0.121966666667     0.833333333333   
O      0.000000000000     0.166666666667     0.780466666667   
O      0.000000000000     0.061800000000     0.666666666667   
Si     0.263766666667     0.069533333333     0.741533333333   
Si     0.000000000000     0.129366666667     0.787633333333   
Si     0.289866666667     0.043500000000     0.666666666667   
O      0.201600000000     0.236900000000     0.767833333333   
O      0.220933333333     0.277133333333     0.704666666667   
O      0.152433333333     0.242866666667     0.728300000000   
O      0.211366666667     0.000000000000     0.833333333333   
O      0.271533333333     0.000000000000     0.666666666667   
Si     0.194233333333     0.263766666667     0.741533333333   
Si     0.203966666667     0.000000000000     0.787633333333   
Si     0.246366666667     0.289866666667     0.666666666667   
O      0.298033333333     0.201600000000     0.767833333333   
O      0.277133333333     0.220933333333     0.704666666667   
O      0.242900000000     0.152433333333     0.728300000000   
O      0.211366666667     0.211366666667     0.833333333333   
O      0.271533333333     0.271533333333     0.666666666667   
Si     0.263800000000     0.194233333333     0.741533333333   
Si     0.203966666667     0.203966666667     0.787633333333   
Si     0.289833333333     0.246366666667     0.666666666667   
O      0.096433333333     0.298033333333     0.767833333333   
O      0.056200000000     0.277133333333     0.704666666667   
O      0.090466666667     0.242900000000     0.728300000000   
O      0.000000000000     0.211366666667     0.833333333333   
O      0.000000000000     0.271533333333     0.666666666667   
Si     0.069566666667     0.263800000000     0.741533333333   
Si     0.000000000000     0.203966666667     0.787633333333   
Si     0.043466666667     0.289833333333     0.666666666667   
O      0.236900000000     0.201600000000     0.898833333333   
O      0.277133333333     0.220933333333     0.962000000000   
O      0.242866666667     0.152433333333     0.938366666667   
O      0.000000000000     0.166666666667     0.886200000000   
Si     0.263766666667     0.194233333333     0.925133333333   
Si     0.000000000000     0.203966666667     0.879033333333   
Si     0.111100000000     0.222233333333     0.953400000000   
O      0.035300000000     0.236900000000     0.898833333333   
O      0.056200000000     0.277133333333     0.962000000000   
O      0.090433333333     0.242866666667     0.938366666667   
O      0.166666666667     0.000000000000     0.886200000000   
Si     0.069533333333     0.263766666667     0.925133333333   
Si     0.129366666667     0.000000000000     0.879033333333   
Si     0.222200000000     0.111100000000     0.953400000000   
O      0.131733333333     0.035300000000     0.898833333333   
O      0.112400000000     0.056200000000     0.962000000000   
O      0.180900000000     0.090433333333     0.938366666667   
O      0.166666666667     0.166666666667     0.886200000000   
Si     0.139100000000     0.069533333333     0.925133333333   
Si     0.129366666667     0.129366666667     0.879033333333   
O      0.096433333333     0.131733333333     0.898833333333   
O      0.056200000000     0.112400000000     0.962000000000   
O      0.090466666667     0.180900000000     0.938366666667   
Si     0.069566666667     0.139100000000     0.925133333333   
Si     0.000000000000     0.129366666667     0.879033333333   
O      0.298033333333     0.096433333333     0.898833333333   
O      0.277133333333     0.056200000000     0.962000000000   
O      0.242900000000     0.090466666667     0.938366666667   
Si     0.263800000000     0.069566666667     0.925133333333   
Si     0.203966666667     0.000000000000     0.879033333333   
O      0.201600000000     0.298033333333     0.898833333333   
O      0.220933333333     0.277133333333     0.962000000000   
O      0.152433333333     0.242900000000     0.938366666667   
Si     0.194233333333     0.263800000000     0.925133333333   
Si     0.203966666667     0.203966666667     0.879033333333   
O      0.201600000000     0.236900000000     0.898833333333   
O      0.298033333333     0.201600000000     0.898833333333   
O      0.096433333333     0.298033333333     0.898833333333   
O      0.131733333333     0.096433333333     0.898833333333   
O      0.035300000000     0.131733333333     0.898833333333   
O      0.236900000000     0.035300000000     0.898833333333   
O      0.096433333333     0.131733333333     0.767833333333   
O      0.298033333333     0.096433333333     0.767833333333   
O      0.201600000000     0.298033333333     0.767833333333   
O      0.236900000000     0.201600000000     0.767833333333   
O      0.035300000000     0.236900000000     0.767833333333   
O      0.131733333333     0.035300000000     0.767833333333   
O      0.131733333333     0.429766666667     0.101166666667   
O      0.112400000000     0.389533333333     0.038000000000   
O      0.180900000000     0.423800000000     0.061633333333   
O      0.121966666667     0.333333333333     0.166666666667   
O      0.166666666667     0.333333333333     0.113800000000   
O      0.061800000000     0.333333333333     0.000000000000   
O      0.111100000000     0.555566666667     0.000000000000   
Si     0.139100000000     0.402900000000     0.074866666667   
Si     0.129366666667     0.333333333333     0.120966666667   
Si     0.086966666667     0.376800000000     0.000000000000   
Si     0.111100000000     0.555566666667     0.046600000000   
O      0.035300000000     0.465066666667     0.101166666667   
O      0.056200000000     0.445733333333     0.038000000000   
O      0.090433333333     0.514233333333     0.061633333333   
O      0.121966666667     0.455300000000     0.166666666667   
O      0.166666666667     0.500000000000     0.113800000000   
O      0.061800000000     0.395133333333     0.000000000000   
O      0.222200000000     0.444433333333     0.000000000000   
Si     0.069533333333     0.472433333333     0.074866666667   
Si     0.129366666667     0.462700000000     0.120966666667   
Si     0.043500000000     0.420300000000     0.000000000000   
Si     0.222200000000     0.444433333333     0.046600000000   
O      0.236900000000     0.368633333333     0.101166666667   
O      0.277133333333     0.389533333333     0.038000000000   
O      0.242866666667     0.423766666667     0.061633333333   
O      0.000000000000     0.455300000000     0.166666666667   
O      0.000000000000     0.500000000000     0.113800000000   
O      0.000000000000     0.395133333333     0.000000000000   
Si     0.263766666667     0.402866666667     0.074866666667   
Si     0.000000000000     0.462700000000     0.120966666667   
Si     0.289866666667     0.376833333333     0.000000000000   
O      0.201600000000     0.570233333333     0.101166666667   
O      0.220933333333     0.610466666667     0.038000000000   
O      0.152433333333     0.576200000000     0.061633333333   
O      0.211366666667     0.333333333333     0.166666666667   
O      0.271533333333     0.333333333333     0.000000000000   
Si     0.194233333333     0.597100000000     0.074866666667   
Si     0.203966666667     0.333333333333     0.120966666667   
Si     0.246366666667     0.623200000000     0.000000000000   
O      0.298033333333     0.534933333333     0.101166666667   
O      0.277133333333     0.554266666667     0.038000000000   
O      0.242900000000     0.485766666667     0.061633333333   
O      0.211366666667     0.544700000000     0.166666666667   
O      0.271533333333     0.604866666667     0.000000000000   
Si     0.263800000000     0.527566666667     0.074866666667   
Si     0.203966666667     0.537300000000     0.120966666667   
Si     0.289833333333     0.579700000000     0.000000000000   
O      0.096433333333     0.631366666667     0.101166666667   
O      0.056200000000     0.610466666667     0.038000000000   
O      0.090466666667     0.576233333333     0.061633333333   
O      0.000000000000     0.544700000000     0.166666666667   
O      0.000000000000     0.604866666667     0.000000000000   
Si     0.069566666667     0.597133333333     0.074866666667   
Si     0.000000000000     0.537300000000     0.120966666667   
Si     0.043466666667     0.623166666667     0.000000000000   
O      0.236900000000     0.534933333333     0.232166666667   
O      0.277133333333     0.554266666667     0.295333333333   
O      0.242866666667     0.485766666667     0.271700000000   
O      0.000000000000     0.500000000000     0.219533333333   
Si     0.263766666667     0.527566666667     0.258466666667   
Si     0.000000000000     0.537300000000     0.212366666667   
Si     0.111100000000     0.555566666667     0.286733333333   
O      0.035300000000     0.570233333333     0.232166666667   
O      0.056200000000     0.610466666667     0.295333333333   
O      0.090433333333     0.576200000000     0.271700000000   
O      0.166666666667     0.333333333333     0.219533333333   
Si     0.069533333333     0.597100000000     0.258466666667   
Si     0.129366666667     0.333333333333     0.212366666667   
Si     0.222200000000     0.444433333333     0.286733333333   
O      0.131733333333     0.368633333333     0.232166666667   
O      0.112400000000     0.389533333333     0.295333333333   
O      0.180900000000     0.423766666667     0.271700000000   
O      0.166666666667     0.500000000000     0.219533333333   
Si     0.139100000000     0.402866666667     0.258466666667   
Si     0.129366666667     0.462700000000     0.212366666667   
O      0.096433333333     0.465066666667     0.232166666667   
O      0.056200000000     0.445733333333     0.295333333333   
O      0.090466666667     0.514233333333     0.271700000000   
Si     0.069566666667     0.472433333333     0.258466666667   
Si     0.000000000000     0.462700000000     0.212366666667   
O      0.298033333333     0.429766666667     0.232166666667   
O      0.277133333333     0.389533333333     0.295333333333   
O      0.242900000000     0.423800000000     0.271700000000   
Si     0.263800000000     0.402900000000     0.258466666667   
Si     0.203966666667     0.333333333333     0.212366666667   
O      0.201600000000     0.631366666667     0.232166666667   
O      0.220933333333     0.610466666667     0.295333333333   
O      0.152433333333     0.576233333333     0.271700000000   
Si     0.194233333333     0.597133333333     0.258466666667   
Si     0.203966666667     0.537300000000     0.212366666667   
O      0.201600000000     0.570233333333     0.232166666667   
O      0.298033333333     0.534933333333     0.232166666667   
O      0.096433333333     0.631366666667     0.232166666667   
O      0.131733333333     0.429766666667     0.232166666667   
O      0.035300000000     0.465066666667     0.232166666667   
O      0.236900000000     0.368633333333     0.232166666667   
O      0.096433333333     0.465066666667     0.101166666667   
O      0.298033333333     0.429766666667     0.101166666667   
O      0.201600000000     0.631366666667     0.101166666667   
O      0.236900000000     0.534933333333     0.101166666667   
O      0.035300000000     0.570233333333     0.101166666667   
O      0.131733333333     0.368633333333     0.101166666667   
O      0.131733333333     0.429766666667     0.434500000000   
O      0.112400000000     0.389533333333     0.371333333333   
O      0.180900000000     0.423800000000     0.394966666667   
O      0.121966666667     0.333333333333     0.500000000000   
O      0.166666666667     0.333333333333     0.447133333333   
O      0.061800000000     0.333333333333     0.333333333333   
O      0.111100000000     0.555566666667     0.333333333333   
Si     0.139100000000     0.402900000000     0.408200000000   
Si     0.129366666667     0.333333333333     0.454300000000   
Si     0.086966666667     0.376800000000     0.333333333333   
Si     0.111100000000     0.555566666667     0.379933333333   
O      0.035300000000     0.465066666667     0.434500000000   
O      0.056200000000     0.445733333333     0.371333333333   
O      0.090433333333     0.514233333333     0.394966666667   
O      0.121966666667     0.455300000000     0.500000000000   
O      0.166666666667     0.500000000000     0.447133333333   
O      0.061800000000     0.395133333333     0.333333333333   
O      0.222200000000     0.444433333333     0.333333333333   
Si     0.069533333333     0.472433333333     0.408200000000   
Si     0.129366666667     0.462700000000     0.454300000000   
Si     0.043500000000     0.420300000000     0.333333333333   
Si     0.222200000000     0.444433333333     0.379933333333   
O      0.236900000000     0.368633333333     0.434500000000   
O      0.277133333333     0.389533333333     0.371333333333   
O      0.242866666667     0.423766666667     0.394966666667   
O      0.000000000000     0.455300000000     0.500000000000   
O      0.000000000000     0.500000000000     0.447133333333   
O      0.000000000000     0.395133333333     0.333333333333   
Si     0.263766666667     0.402866666667     0.408200000000   
Si     0.000000000000     0.462700000000     0.454300000000   
Si     0.289866666667     0.376833333333     0.333333333333   
O      0.201600000000     0.570233333333     0.434500000000   
O      0.220933333333     0.610466666667     0.371333333333   
O      0.152433333333     0.576200000000     0.394966666667   
O      0.211366666667     0.333333333333     0.500000000000   
O      0.271533333333     0.333333333333     0.333333333333   
Si     0.194233333333     0.597100000000     0.408200000000   
Si     0.203966666667     0.333333333333     0.454300000000   
Si     0.246366666667     0.623200000000     0.333333333333   
O      0.298033333333     0.534933333333     0.434500000000   
O      0.277133333333     0.554266666667     0.371333333333   
O      0.242900000000     0.485766666667     0.394966666667   
O      0.211366666667     0.544700000000     0.500000000000   
O      0.271533333333     0.604866666667     0.333333333333   
Si     0.263800000000     0.527566666667     0.408200000000   
Si     0.203966666667     0.537300000000     0.454300000000   
Si     0.289833333333     0.579700000000     0.333333333333   
O      0.096433333333     0.631366666667     0.434500000000   
O      0.056200000000     0.610466666667     0.371333333333   
O      0.090466666667     0.576233333333     0.394966666667   
O      0.000000000000     0.544700000000     0.500000000000   
O      0.000000000000     0.604866666667     0.333333333333   
Si     0.069566666667     0.597133333333     0.408200000000   
Si     0.000000000000     0.537300000000     0.454300000000   
Si     0.043466666667     0.623166666667     0.333333333333   
O      0.236900000000     0.534933333333     0.565500000000   
O      0.277133333333     0.554266666667     0.628666666667   
O      0.242866666667     0.485766666667     0.605033333333   
O      0.000000000000     0.500000000000     0.552866666667   
Si     0.263766666667     0.527566666667     0.591800000000   
Si     0.000000000000     0.537300000000     0.545700000000   
Si     0.111100000000     0.555566666667     0.620066666667   
O      0.035300000000     0.570233333333     0.565500000000   
O      0.056200000000     0.610466666667     0.628666666667   