%BLOCK LATTICE_CART
ang    # angstrom units
  27.845002500000    0.000000000000     0.000000000000   
  0.000000000000     20.015001700000    0.000000000000   
 -1.093880669202     0.000000000000     19.565446279396  
%ENDBLOCK LATTICE_CART

%BLOCK POSITIONS_FRAC
O      0.044700000000     0.045600000000     0.449400000000   
O      0.087400000000     0.102200000000     0.467300000000   
O      0.135500000000     0.055150000000     0.437350000000   
O      0.110200000000     0.046700000000     0.000300000000   
O      0.122200000000     0.099500000000     0.319050000000   
O      0.127200000000     0.122900000000     0.381400000000   
O      0.117200000000     0.058450000000     0.370950000000   
O      0.045000000000     0.098950000000     0.355200000000   
O      0.049300000000     0.047100000000     0.049450000000   
O      0.115000000000     0.000000000000     0.047600000000   
O      0.140500000000     0.061400000000     0.063150000000   
O      0.202600000000     0.039000000000     0.395700000000   
O      0.127500000000     0.000000000000     0.401100000000   
O      0.139900000000     0.150300000000     0.441700000000   
O      0.116000000000     0.153400000000     0.005550000000   
O      0.050700000000     0.161700000000     0.455100000000   
O      0.207200000000     0.103300000000     0.086800000000   
O      0.297500000000     0.088650000000     0.104250000000   
O      0.237200000000     0.101200000000     0.151550000000   
O      0.266400000000     0.149700000000     0.112500000000   
O      0.042300000000     0.155450000000     0.044650000000   
O      0.995500000000     0.125600000000     0.092500000000   
O      0.003800000000     0.191200000000     0.092700000000   
O      0.121900000000     0.125750000000     0.066500000000   
O      0.132200000000     0.090650000000     0.122750000000   
O      0.118900000000     0.191300000000     0.060550000000   
O      0.007300000000     0.000000000000     0.083800000000   
O      0.007700000000     0.061950000000     0.106100000000   
O      0.121600000000     0.201350000000     0.321700000000   
O      0.040100000000     0.208500000000     0.351950000000   
O      0.116700000000     0.188000000000     0.387650000000   
O      0.111500000000     0.250000000000     0.365650000000   
O      0.133800000000     0.211400000000     0.124350000000   
O      0.157200000000     0.250000000000     0.073750000000   
O      0.207100000000     0.195700000000     0.087800000000   
O      0.237700000000     0.198000000000     0.152250000000   
O      0.169400000000     0.149450000000     0.222900000000   
O      0.220600000000     0.204100000000     0.217250000000   
O      0.148300000000     0.203000000000     0.257850000000   
O      0.132000000000     0.201150000000     0.190650000000   
O      0.052600000000     0.196050000000     0.151800000000   
O      0.120100000000     0.150850000000     0.147300000000   
O      0.191800000000     0.059350000000     0.301350000000   
O      0.228800000000     0.000000000000     0.313050000000   
O      0.019900000000     0.250000000000     0.120400000000   
O      0.049200000000     0.107100000000     0.146800000000   
O      0.211200000000     0.189500000000     0.308450000000   
O      0.284000000000     0.156400000000     0.285100000000   
O      0.204400000000     0.124450000000     0.299600000000   
O      0.144200000000     0.095500000000     0.255150000000   
O      0.126600000000     0.099800000000     0.188700000000   
O      0.176500000000     0.250000000000     0.301350000000   
Si     0.102600000000     0.095000000000     0.356650000000   
Si     0.997800000000     0.158450000000     0.069050000000   
Si     0.150500000000     0.095100000000     0.084750000000   
Si     0.094300000000     0.062500000000     0.463650000000   
Si     0.100000000000     0.156450000000     0.044250000000   
Si     0.004800000000     0.038700000000     0.072550000000   
Si     0.097700000000     0.211800000000     0.356650000000   
Si     0.154100000000     0.211950000000     0.086700000000   
Si     0.103600000000     0.038800000000     0.040050000000   
Si     0.252300000000     0.188600000000     0.114250000000   
Si     0.145700000000     0.038200000000     0.401250000000   
Si     0.167500000000     0.189600000000     0.222350000000   
Si     0.109800000000     0.189850000000     0.153650000000   
Si     0.240800000000     0.039250000000     0.311050000000   
Si     0.008800000000     0.211350000000     0.128200000000   
Si     0.002100000000     0.098450000000     0.122700000000   
Si     0.240200000000     0.154700000000     0.310200000000   
Si     0.146300000000     0.155750000000     0.401500000000   
Si     0.163800000000     0.109550000000     0.220000000000   
Si     0.106500000000     0.112000000000     0.151450000000   
Si     0.164000000000     0.210900000000     0.297150000000   
Si     0.098700000000     0.141650000000     0.467550000000   
Si     0.165800000000     0.094800000000     0.294200000000   
Si     0.251800000000     0.110850000000     0.113600000000   
O      0.955300000000     0.045600000000     0.050600000000   
O      0.912600000000     0.102200000000     0.032700000000   
O      0.864500000000     0.055150000000     0.062650000000   
O      0.889800000000     0.046700000000     0.499700000000   
O      0.877800000000     0.099500000000     0.180950000000   
O      0.872800000000     0.122900000000     0.118600000000   
O      0.882800000000     0.058450000000     0.129050000000   
O      0.955000000000     0.098950000000     0.144800000000   
O      0.950700000000     0.047100000000     0.450550000000   
O      0.885000000000     0.000000000000     0.452400000000   
O      0.859500000000     0.061400000000     0.436850000000   
O      0.797400000000     0.039000000000     0.104300000000   
O      0.872500000000     0.000000000000     0.098900000000   
O      0.860100000000     0.150300000000     0.058300000000   
O      0.884000000000     0.153400000000     0.494450000000   
O      0.949300000000     0.161700000000     0.044900000000   
O      0.792800000000     0.103300000000     0.413200000000   
O      0.702500000000     0.088650000000     0.395750000000   
O      0.762800000000     0.101200000000     0.348450000000   
O      0.733600000000     0.149700000000     0.387500000000   
O      0.957700000000     0.155450000000     0.455350000000   
O      0.004500000000     0.125600000000     0.407500000000   
O      0.996200000000     0.191200000000     0.407300000000   
O      0.878100000000     0.125750000000     0.433500000000   
O      0.867800000000     0.090650000000     0.377250000000   
O      0.881100000000     0.191300000000     0.439450000000   
O      0.992700000000     0.000000000000     0.416200000000   
O      0.992300000000     0.061950000000     0.393900000000   
O      0.878400000000     0.201350000000     0.178300000000   
O      0.959900000000     0.208500000000     0.148050000000   
O      0.883300000000     0.188000000000     0.112350000000   
O      0.888500000000     0.250000000000     0.134350000000   
O      0.866200000000     0.211400000000     0.375650000000   
O      0.842800000000     0.250000000000     0.426250000000   
O      0.792900000000     0.195700000000     0.412200000000   
O      0.762300000000     0.198000000000     0.347750000000   
O      0.830600000000     0.149450000000     0.277100000000   
O      0.779400000000     0.204100000000     0.282750000000   
O      0.851700000000     0.203000000000     0.242150000000   
O      0.868000000000     0.201150000000     0.309350000000   
O      0.947400000000     0.196050000000     0.348200000000   
O      0.879900000000     0.150850000000     0.352700000000   
O      0.808200000000     0.059350000000     0.198650000000   
O      0.771200000000     0.000000000000     0.186950000000   
O      0.980100000000     0.250000000000     0.379600000000   
O      0.950800000000     0.107100000000     0.353200000000   
O      0.788800000000     0.189500000000     0.191550000000   
O      0.716000000000     0.156400000000     0.214900000000   
O      0.795600000000     0.124450000000     0.200400000000   
O      0.855800000000     0.095500000000     0.244850000000   
O      0.873400000000     0.099800000000     0.311300000000   
O      0.823500000000     0.250000000000     0.198650000000   
Si     0.897400000000     0.095000000000     0.143350000000   
Si     0.002200000000     0.158450000000     0.430950000000   
Si     0.849500000000     0.095100000000     0.415250000000   
Si     0.905700000000     0.062500000000     0.036350000000   
Si     0.900000000000     0.156450000000     0.455750000000   
Si     0.995200000000     0.038700000000     0.427450000000   
Si     0.902300000000     0.211800000000     0.143350000000   
Si     0.845900000000     0.211950000000     0.413300000000   
Si     0.896400000000     0.038800000000     0.459950000000   
Si     0.747700000000     0.188600000000     0.385750000000   
Si     0.854300000000     0.038200000000     0.098750000000   
Si     0.832500000000     0.189600000000     0.277650000000   
Si     0.890200000000     0.189850000000     0.346350000000   
Si     0.759200000000     0.039250000000     0.188950000000   
Si     0.991200000000     0.211350000000     0.371800000000   
Si     0.997900000000     0.098450000000     0.377300000000   
Si     0.759800000000     0.154700000000     0.189800000000   
Si     0.853700000000     0.155750000000     0.098500000000   
Si     0.836200000000     0.109550000000     0.280000000000   
Si     0.893500000000     0.112000000000     0.348550000000   
Si     0.836000000000     0.210900000000     0.202850000000   
Si     0.901300000000     0.141650000000     0.032450000000   
Si     0.834200000000     0.094800000000     0.205800000000   
Si     0.748200000000     0.110850000000     0.386400000000   
O      0.955300000000     0.454400000000     0.050600000000   
O      0.912600000000     0.397800000000     0.032700000000   
O      0.864500000000     0.444850000000     0.062650000000   
O      0.889800000000     0.453300000000     0.499700000000   
O      0.877800000000     0.400500000000     0.180950000000   
O      0.872800000000     0.377100000000     0.118600000000   
O      0.882800000000     0.441550000000     0.129050000000   
O      0.955000000000     0.401050000000     0.144800000000   
O      0.950700000000     0.452900000000     0.450550000000   
O      0.859500000000     0.438600000000     0.436850000000   
O      0.797400000000     0.461000000000     0.104300000000   
O      0.860100000000     0.349700000000     0.058300000000   
O      0.884000000000     0.346600000000     0.494450000000   
O      0.949300000000     0.338300000000     0.044900000000   
O      0.792800000000     0.396700000000     0.413200000000   
O      0.702500000000     0.411350000000     0.395750000000   
O      0.762800000000     0.398800000000     0.348450000000   
O      0.733600000000     0.350300000000     0.387500000000   
O      0.957700000000     0.344550000000     0.455350000000   
O      0.004500000000     0.374400000000     0.407500000000   
O      0.996200000000     0.308800000000     0.407300000000   
O      0.878100000000     0.374250000000     0.433500000000   
O      0.867800000000     0.409350000000     0.377250000000   
O      0.881100000000     0.308700000000     0.439450000000   
O      0.992300000000     0.438050000000     0.393900000000   
O      0.878400000000     0.298650000000     0.178300000000   
O      0.959900000000     0.291500000000     0.148050000000   
O      0.883300000000     0.312000000000     0.112350000000   
O      0.866200000000     0.288600000000     0.375650000000   
O      0.792900000000     0.304300000000     0.412200000000   
O      0.762300000000     0.302000000000     0.347750000000   
O      0.830600000000     0.350550000000     0.277100000000   
O      0.779400000000     0.295900000000     0.282750000000   
O      0.851700000000     0.297000000000     0.242150000000   
O      0.868000000000     0.298850000000     0.309350000000   
O      0.947400000000     0.303950000000     0.348200000000   
O      0.879900000000     0.349150000000     0.352700000000   
O      0.808200000000     0.440650000000     0.198650000000   
O      0.950800000000     0.392900000000     0.353200000000   
O      0.788800000000     0.310500000000     0.191550000000   
O      0.716000000000     0.343600000000     0.214900000000   
O      0.795600000000     0.375550000000     0.200400000000   
O      0.855800000000     0.404500000000     0.244850000000   
O      0.873400000000     0.400200000000     0.311300000000   
Si     0.897400000000     0.405000000000     0.143350000000   
Si     0.002200000000     0.341550000000     0.430950000000   
Si     0.849500000000     0.404900000000     0.415250000000   
Si     0.905700000000     0.437500000000     0.036350000000   
Si     0.900000000000     0.343550000000     0.455750000000   
Si     0.995200000000     0.461300000000     0.427450000000   
Si     0.902300000000     0.288200000000     0.143350000000   
Si     0.845900000000     0.288050000000     0.413300000000   
Si     0.896400000000     0.461200000000     0.459950000000   
Si     0.747700000000     0.311400000000     0.385750000000   
Si     0.854300000000     0.461800000000     0.098750000000   
Si     0.832500000000     0.310400000000     0.277650000000   
Si     0.890200000000     0.310150000000     0.346350000000   
Si     0.759200000000     0.460750000000     0.188950000000   
Si     0.991200000000     0.288650000000     0.371800000000   
Si     0.997900000000     0.401550000000     0.377300000000   
Si     0.759800000000     0.345300000000     0.189800000000   
Si     0.853700000000     0.344250000000     0.098500000000   
Si     0.836200000000     0.390450000000     0.280000000000   
Si     0.893500000000     0.388000000000     0.348550000000   
Si     0.836000000000     0.289100000000     0.202850000000   
Si     0.901300000000     0.358350000000     0.032450000000   
Si     0.834200000000     0.405200000000     0.205800000000   
Si     0.748200000000     0.389150000000     0.386400000000   
O      0.044700000000     0.454400000000     0.449400000000   
O      0.087400000000     0.397800000000     0.467300000000   
O      0.135500000000     0.444850000000     0.437350000000   
O      0.110200000000     0.453300000000     0.000300000000   
O      0.122200000000     0.400500000000     0.319050000000   
O      0.127200000000     0.377100000000     0.381400000000   
O      0.117200000000     0.441550000000     0.370950000000   
O      0.045000000000     0.401050000000     0.355200000000   
O      0.049300000000     0.452900000000     0.049450000000   
O      0.140500000000     0.438600000000     0.063150000000   
O      0.202600000000     0.461000000000     0.395700000000   
O      0.139900000000     0.349700000000     0.441700000000   
O      0.116000000000     0.346600000000     0.005550000000   
O      0.050700000000     0.338300000000     0.455100000000   
O      0.207200000000     0.396700000000     0.086800000000   
O      0.297500000000     0.411350000000     0.104250000000   
O      0.237200000000     0.398800000000     0.151550000000   
O      0.266400000000     0.350300000000     0.112500000000   
O      0.042300000000     0.344550000000     0.044650000000   
O      0.995500000000     0.374400000000     0.092500000000   
O      0.003800000000     0.308800000000     0.092700000000   
O      0.121900000000     0.374250000000     0.066500000000   
O      0.132200000000     0.409350000000     0.122750000000   
O      0.118900000000     0.308700000000     0.060550000000   
O      0.007700000000     0.438050000000     0.106100000000   
O      0.121600000000     0.298650000000     0.321700000000   
O      0.040100000000     0.291500000000     0.351950000000   
O      0.116700000000     0.312000000000     0.387650000000   
O      0.133800000000     0.288600000000     0.124350000000   
O      0.207100000000     0.304300000000     0.087800000000   
O      0.237700000000     0.302000000000     0.152250000000   
O      0.169400000000     0.350550000000     0.222900000000   
O      0.220600000000     0.295900000000     0.217250000000   
O      0.148300000000     0.297000000000     0.257850000000   
O      0.132000000000     0.298850000000     0.190650000000   
O      0.052600000000     0.303950000000     0.151800000000   
O      0.120100000000     0.349150000000     0.147300000000   
O      0.191800000000     0.440650000000     0.301350000000   
O      0.049200000000     0.392900000000     0.146800000000   
O      0.211200000000     0.310500000000     0.308450000000   
O      0.284000000000     0.343600000000     0.285100000000   
O      0.204400000000     0.375550000000     0.299600000000   
O      0.144200000000     0.404500000000     0.255150000000   
O      0.126600000000     0.400200000000     0.188700000000   
Si     0.102600000000     0.405000000000     0.356650000000   
Si     0.997800000000     0.341550000000     0.069050000000   
Si     0.150500000000     0.404900000000     0.084750000000   
Si     0.094300000000     0.437500000000     0.463650000000   
Si     0.100000000000     0.343550000000     0.044250000000   
Si     0.004800000000     0.461300000000     0.072550000000   
Si     0.097700000000     0.288200000000     0.356650000000   
Si     0.154100000000     0.288050000000     0.086700000000   
Si     0.103600000000     0.461200000000     0.040050000000   
Si     0.252300000000     0.311400000000     0.114250000000   
Si     0.145700000000     0.461800000000     0.401250000000   
Si     0.167500000000     0.310400000000     0.222350000000   
Si     0.109800000000     0.310150000000     0.153650000000   
Si     0.240800000000     0.460750000000     0.311050000000   
Si     0.008800000000     0.288650000000     0.128200000000   
Si     0.002100000000     0.401550000000     0.122700000000   
Si     0.240200000000     0.345300000000     0.310200000000   
Si     0.146300000000     0.344250000000     0.401500000000   
Si     0.163800000000     0.390450000000     0.220000000000   
Si     0.106500000000     0.388000000000     0.151450000000   
Si     0.164000000000     0.289100000000     0.297150000000   
Si     0.098700000000     0.358350000000     0.467550000000   
Si     0.165800000000     0.405200000000     0.294200000000   
Si     0.251800000000     0.389150000000     0.113600000000   
O      0.544700000000     0.295600000000     0.449400000000   
O      0.587400000000     0.352200000000     0.467300000000   
O      0.635500000000     0.305150000000     0.437350000000   
O      0.610200000000     0.296700000000     0.000300000000   
O      0.622200000000     0.349500000000     0.319050000000   
O      0.627200000000     0.372900000000     0.381400000000   
O      0.617200000000     0.308450000000     0.370950000000   
O      0.545000000000     0.348950000000     0.355200000000   
O      0.549300000000     0.297100000000     0.049450000000   
O      0.615000000000     0.250000000000     0.047600000000   
O      0.640500000000     0.311400000000     0.063150000000   
O      0.702600000000     0.289000000000     0.395700000000   
O      0.627500000000     0.250000000000     0.401100000000   
O      0.639900000000     0.400300000000     0.441700000000   
O      0.616000000000     0.403400000000     0.005550000000   
O      0.550700000000     0.411700000000     0.455100000000   
O      0.707200000000     0.353300000000     0.086800000000   
O      0.797500000000     0.338650000000     0.104250000000   
O      0.737200000000     0.351200000000     0.151550000000   
O      0.766400000000     0.399700000000     0.112500000000   
O      0.542300000000     0.405450000000     0.044650000000   
O      0.495500000000     0.375600000000     0.092500000000   
O      0.503800000000     0.441200000000     0.092700000000   
O      0.621900000000     0.375750000000     0.066500000000   
O      0.632200000000     0.340650000000     0.122750000000   
O      0.618900000000     0.441300000000     0.060550000000   
O      0.507300000000     0.250000000000     0.083800000000   
O      0.507700000000     0.311950000000     0.106100000000   
O      0.621600000000     0.451350000000     0.321700000000   
O      0.540100000000     0.458500000000     0.351950000000   
O      0.616700000000     0.438000000000     0.387650000000   
O      0.611500000000     0.000000000000     0.365650000000   
O      0.633800000000     0.461400000000     0.124350000000   
O      0.657200000000     0.000000000000     0.073750000000   
O      0.707100000000     0.445700000000     0.087800000000   
O      0.737700000000     0.448000000000     0.152250000000   
O      0.669400000000     0.399450000000     0.222900000000   
O      0.720600000000     0.454100000000     0.217250000000   
O      0.648300000000     0.453000000000     0.257850000000   
O      0.632000000000     0.451150000000     0.190650000000   
O      0.552600000000     0.446050000000     0.151800000000   
O      0.620100000000     0.400850000000     0.147300000000   
O      0.691800000000     0.309350000000     0.301350000000   
O      0.728800000000     0.250000000000     0.313050000000   
O      0.519900000000     0.000000000000     0.120400000000   
O      0.549200000000     0.357100000000     0.146800000000   
O      0.711200000000     0.439500000000     0.308450000000   
O      0.784000000000     0.406400000000     0.285100000000   
O      0.704400000000     0.374450000000     0.299600000000   
O      0.644200000000     0.345500000000     0.255150000000   
O      0.626600000000     0.349800000000     0.188700000000   
O      0.676500000000     0.000000000000     0.301350000000   
Si     0.602600000000     0.345000000000     0.356650000000   
Si     0.497800000000     0.408450000000     0.069050000000   
Si     0.650500000000     0.345100000000     0.084750000000   
Si     0.594300000000     0.312500000000     0.463650000000   
Si     0.600000000000     0.406450000000     0.044250000000   
Si     0.504800000000     0.288700000000     0.072550000000   
Si     0.597700000000     0.461800000000     0.356650000000   
Si     0.654100000000     0.461950000000     0.086700000000   
Si     0.603600000000     0.288800000000     0.040050000000   
Si     0.752300000000     0.438600000000     0.114250000000   
Si     0.645700000000     0.288200000000     0.401250000000   
Si     0.667500000000     0.439600000000     0.222350000000   
Si     0.609800000000     0.439850000000     0.153650000000   
Si     0.740800000000     0.289250000000     0.311050000000   
Si     0.508800000000     0.461350000000     0.128200000000   
Si     0.502100000000     0.348450000000     0.122700000000   
Si     0.740200000000     0.404700000000     0.310200000000   
Si     0.646300000000     0.405750000000     0.401500000000   
Si     0.663800000000     0.359550000000     0.220000000000   
Si     0.606500000000     0.362000000000     0.151450000000   
Si     0.664000000000     0.460900000000     0.297150000000   
Si     0.598700000000     0.391650000000     0.467550000000   
Si     0.665800000000     0.344800000000     0.294200000000   
Si     0.751800000000     0.360850000000     0.113600000000   
O      0.455300000000     0.295600000000     0.050600000000   
O      0.412600000000     0.352200000000     0.032700000000   
O      0.364500000000     0.305150000000     0.062650000000   
O      0.389800000000     0.296700000000     0.499700000000   
O      0.377800000000     0.349500000000     0.180950000000   
O      0.372800000000     0.372900000000     0.118600000000   
O      0.382800000000     0.308450000000     0.129050000000   
O      0.455000000000     0.348950000000     0.144800000000   
O      0.450700000000     0.297100000000     0.450550000000   
O      0.385000000000     0.250000000000     0.452400000000   
O      0.359500000000     0.311400000000     0.436850000000   
O      0.297400000000     0.289000000000     0.104300000000   
O      0.372500000000     0.250000000000     0.098900000000   
O      0.360100000000     0.400300000000     0.058300000000   
O      0.384000000000     0.403400000000     0.494450000000   
O      0.449300000000     0.411700000000     0.044900000000   
O      0.292800000000     0.353300000000     0.413200000000   
O      0.202500000000     0.338650000000     0.395750000000   
O      0.262800000000     0.351200000000     0.348450000000   
O      0.233600000000     0.399700000000     0.387500000000   
O      0.457700000000     0.405450000000     0.455350000000   
O      0.504500000000     0.375600000000     0.407500000000   
O      0.496200000000     0.441200000000     0.407300000000   
O      0.378100000000     0.375750000000     0.433500000000   
O      0.367800000000     0.340650000000     0.377250000000   
O      0.381100000000     0.441300000000     0.439450000000   
O      0.492700000000     0.250000000000     0.416200000000   
O      0.492300000000     0.311950000000     0.393900000000   
O      0.378400000000     0.451350000000     0.178300000000   
O      0.459900000000     0.458500000000     0.148050000000   
O      0.383300000000     0.438000000000     0.112350000000   
O      0.388500000000     0.000000000000     0.134350000000   
O      0.366200000000     0.461400000000     0.375650000000   
O      0.342800000000     0.000000000000     0.426250000000   
O      0.292900000000     0.445700000000     0.412200000000   
O      0.262300000000     0.448000000000     0.347750000000   
O      0.330600000000     0.399450000000     0.277100000000   
O      0.279400000000     0.454100000000     0.282750000000   
O      0.351700000000     0.453000000000     0.242150000000   
O      0.368000000000     0.451150000000     0.309350000000   
O      0.447400000000     0.446050000000     0.348200000000   
O      0.379900000000     0.400850000000     0.352700000000   
O      0.308200000000     0.309350000000     0.198650000000   
O      0.271200000000     0.250000000000     0.186950000000   
O      0.480100000000     0.000000000000     0.379600000000   
O      0.450800000000     0.357100000000     0.353200000000   
O      0.288800000000     0.439500000000     0.191550000000   
O      0.216000000000     0.406400000000     0.214900000000   
O      0.295600000000     0.374450000000     0.200400000000   
O      0.355800000000     0.345500000000     0.244850000000   
O      0.373400000000     0.349800000000     0.311300000000   
O      0.323500000000     0.000000000000     0.198650000000   
Si     0.397400000000     0.345000000000     0.143350000000   
Si     0.502200000000     0.408450000000     0.430950000000   
Si     0.349500000000     0.345100000000     0.415250000000   
Si     0.405700000000     0.312500000000     0.036350000000   
Si     0.400000000000     0.406450000000     0.455750000000   
Si     0.495200000000     0.288700000000     0.427450000000   
Si     0.402300000000     0.461800000000     0.143350000000   
Si     0.345900000000     0.461950000000     0.413300000000   
Si     0.396400000000     0.288800000000     0.459950000000   
Si     0.247700000000     0.438600000000     0.385750000000   
Si     0.354300000000     0.288200000000     0.098750000000   
Si     0.332500000000     0.439600000000     0.277650000000   
Si     0.390200000000     0.439850000000     0.346350000000   
Si     0.259200000000     0.289250000000     0.188950000000   
Si     0.491200000000     0.461350000000     0.371800000000   
Si     0.497900000000     0.348450000000     0.377300000000   
Si     0.259800000000     0.404700000000     0.189800000000   
Si     0.353700000000     0.405750000000     0.098500000000   
Si     0.336200000000     0.359550000000     0.280000000000   
Si     0.393500000000     0.362000000000     0.348550000000   
Si     0.336000000000     0.460900000000     0.202850000000   
Si     0.401300000000     0.391650000000     0.032450000000   
Si     0.334200000000     0.344800000000     0.205800000000   
Si     0.248200000000     0.360850000000     0.386400000000   
O      0.455300000000     0.204400000000     0.050600000000   
O      0.412600000000     0.147800000000     0.032700000000   
O      0.364500000000     0.194850000000     0.062650000000   
O      0.389800000000     0.203300000000     0.499700000000   
O      0.377800000000     0.150500000000     0.180950000000   
O      0.372800000000     0.127100000000     0.118600000000   
O      0.382800000000     0.191550000000     0.129050000000   
O      0.455000000000     0.151050000000     0.144800000000   
O      0.450700000000     0.202900000000     0.450550000000   
O      0.359500000000     0.188600000000     0.436850000000   
O      0.297400000000     0.211000000000     0.104300000000   
O      0.360100000000     0.099700000000     0.058300000000   
O      0.384000000000     0.096600000000     0.494450000000   
O      0.449300000000     0.088300000000     0.044900000000   
O      0.292800000000     0.146700000000     0.413200000000   
O      0.202500000000     0.161350000000     0.395750000000   
O      0.262800000000     0.148800000000     0.348450000000   
O      0.233600000000     0.100300000000     0.387500000000   
O      0.457700000000     0.094550000000     0.455350000000   
O      0.504500000000     0.124400000000     0.407500000000   
O      0.496200000000     0.058800000000     0.407300000000   
O      0.378100000000     0.124250000000     0.433500000000   
O      0.367800000000     0.159350000000     0.377250000000   
O      0.381100000000     0.058700000000     0.439450000000   
O      0.492300000000     0.188050000000     0.393900000000   
O      0.378400000000     0.048650000000     0.178300000000   
O      0.459900000000     0.041500000000     0.148050000000   
O      0.383300000000     0.062000000000     0.112350000000   
O      0.366200000000     0.038600000000     0.375650000000   
O      0.292900000000     0.054300000000     0.412200000000   
O      0.262300000000     0.052000000000     0.347750000000   
O      0.330600000000     0.100550000000     0.277100000000   